! RC peaking equalizer  S21(f) = H_eq(f)/H_base(f)
! source: documented reference table (PIPELINE.md ## ## / run_full_eye_analysis derivation)
# Hz S RI R 50
1.00000000e+00 0 0 5.92080817e-02 8.62278564e-12 0 0 0 0
1.00000000e+03 0 0 5.92080817e-02 8.62278564e-09 0 0 0 0
1.02866288e+03 0 0 5.92080817e-02 8.86993947e-09 0 0 0 0
1.05814731e+03 0 0 5.92080817e-02 9.12417744e-09 0 0 0 0
1.08847686e+03 0 0 5.92080817e-02 9.38570260e-09 0 0 0 0
1.11967573e+03 0 0 5.92080817e-02 9.65472382e-09 0 0 0 0
1.15176886e+03 0 0 5.92080817e-02 9.93145597e-09 0 0 0 0
1.18478186e+03 0 0 5.92080817e-02 1.02161201e-08 0 0 0 0
1.21874112e+03 0 0 5.92080817e-02 1.05089434e-08 0 0 0 0
1.25367374e+03 0 0 5.92080817e-02 1.08101600e-08 0 0 0 0
1.28960764e+03 0 0 5.92080817e-02 1.11200102e-08 0 0 0 0
1.32657150e+03 0 0 5.92080817e-02 1.14387417e-08 0 0 0 0
1.36459485e+03 0 0 5.92080817e-02 1.17666089e-08 0 0 0 0
1.40370807e+03 0 0 5.92080817e-02 1.21038738e-08 0 0 0 0
1.44394238e+03 0 0 5.92080817e-02 1.24508056e-08 0 0 0 0
1.48532992e+03 0 0 5.92080817e-02 1.28076815e-08 0 0 0 0
1.52790374e+03 0 0 5.92080817e-02 1.31747865e-08 0 0 0 0
1.57169786e+03 0 0 5.92080817e-02 1.35524137e-08 0 0 0 0
1.61674724e+03 0 0 5.92080817e-02 1.39408649e-08 0 0 0 0
1.66308786e+03 0 0 5.92080817e-02 1.43404501e-08 0 0 0 0
1.71075674e+03 0 0 5.92080817e-02 1.47514887e-08 0 0 0 0
1.75979195e+03 0 0 5.92080817e-02 1.51743087e-08 0 0 0 0
1.81023264e+03 0 0 5.92080817e-02 1.56092481e-08 0 0 0 0
1.86211912e+03 0 0 5.92080817e-02 1.60566540e-08 0 0 0 0
1.91549280e+03 0 0 5.92080817e-02 1.65168839e-08 0 0 0 0
1.97039634e+03 0 0 5.92080817e-02 1.69903052e-08 0 0 0 0
2.02687356e+03 0 0 5.92080817e-02 1.74772962e-08 0 0 0 0
2.08496958e+03 0 0 5.92080817e-02 1.79782458e-08 0 0 0 0
2.14473081e+03 0 0 5.92080817e-02 1.84935540e-08 0 0 0 0
2.20620496e+03 0 0 5.92080817e-02 1.90236324e-08 0 0 0 0
2.26944114e+03 0 0 5.92080817e-02 1.95689045e-08 0 0 0 0
2.33448984e+03 0 0 5.92080817e-02 2.01298055e-08 0 0 0 0
2.40140304e+03 0 0 5.92080817e-02 2.07067836e-08 0 0 0 0
2.47023415e+03 0 0 5.92080817e-02 2.13002996e-08 0 0 0 0
2.54103816e+03 0 0 5.92080817e-02 2.19108274e-08 0 0 0 0
2.61387162e+03 0 0 5.92080817e-02 2.25388547e-08 0 0 0 0
2.68879270e+03 0 0 5.92080817e-02 2.31848831e-08 0 0 0 0
2.76586123e+03 0 0 5.92080817e-02 2.38494285e-08 0 0 0 0
2.84513877e+03 0 0 5.92080817e-02 2.45330217e-08 0 0 0 0
2.92668862e+03 0 0 5.92080817e-02 2.52362087e-08 0 0 0 0
3.01057593e+03 0 0 5.92080817e-02 2.59595510e-08 0 0 0 0
3.09686770e+03 0 0 5.92080817e-02 2.67036263e-08 0 0 0 0
3.18563283e+03 0 0 5.92080817e-02 2.74690290e-08 0 0 0 0
3.27694223e+03 0 0 5.92080817e-02 2.82563704e-08 0 0 0 0
3.37086881e+03 0 0 5.92080817e-02 2.90662792e-08 0 0 0 0
3.46748760e+03 0 0 5.92080817e-02 2.98994023e-08 0 0 0 0
3.56687577e+03 0 0 5.92080817e-02 3.07564052e-08 0 0 0 0
3.66911268e+03 0 0 5.92080817e-02 3.16379722e-08 0 0 0 0
3.77428000e+03 0 0 5.92080817e-02 3.25448074e-08 0 0 0 0
3.88246172e+03 0 0 5.92080817e-02 3.34776352e-08 0 0 0 0
3.99374424e+03 0 0 5.92080817e-02 3.44372005e-08 0 0 0 0
4.10821643e+03 0 0 5.92080817e-02 3.54242697e-08 0 0 0 0
4.22596972e+03 0 0 5.92080817e-02 3.64396311e-08 0 0 0 0
4.34709817e+03 0 0 5.92080817e-02 3.74840957e-08 0 0 0 0
4.47169850e+03 0 0 5.92080817e-02 3.85584976e-08 0 0 0 0
4.59987024e+03 0 0 5.92080817e-02 3.96636950e-08 0 0 0 0
4.73171574e+03 0 0 5.92080817e-02 4.08005706e-08 0 0 0 0
4.86734032e+03 0 0 5.92080817e-02 4.19700323e-08 0 0 0 0
5.00685229e+03 0 0 5.92080817e-02 4.31730141e-08 0 0 0 0
5.15036307e+03 0 0 5.92080817e-02 4.44104768e-08 0 0 0 0
5.29798729e+03 0 0 5.92080817e-02 4.56834087e-08 0 0 0 0
5.44984283e+03 0 0 5.92080817e-02 4.69928266e-08 0 0 0 0
5.60605100e+03 0 0 5.92080817e-02 4.83397761e-08 0 0 0 0
5.76673654e+03 0 0 5.92080817e-02 4.97253331e-08 0 0 0 0
5.93202779e+03 0 0 5.92080817e-02 5.11506041e-08 0 0 0 0
6.10205676e+03 0 0 5.92080817e-02 5.26167275e-08 0 0 0 0
6.27695925e+03 0 0 5.92080817e-02 5.41248742e-08 0 0 0 0
6.45687495e+03 0 0 5.92080817e-02 5.56762487e-08 0 0 0 0
6.64194756e+03 0 0 5.92080817e-02 5.72720901e-08 0 0 0 0
6.83232487e+03 0 0 5.92080817e-02 5.89136728e-08 0 0 0 0
7.02815895e+03 0 0 5.92080817e-02 6.06023081e-08 0 0 0 0
7.22960619e+03 0 0 5.92080817e-02 6.23393445e-08 0 0 0 0
7.43682749e+03 0 0 5.92080817e-02 6.41261694e-08 0 0 0 0
7.64998835e+03 0 0 5.92080817e-02 6.59642098e-08 0 0 0 0
7.86925901e+03 0 0 5.92080817e-02 6.78549337e-08 0 0 0 0
8.09481460e+03 0 0 5.92080817e-02 6.97998512e-08 0 0 0 0
8.32683526e+03 0 0 5.92080817e-02 7.18005156e-08 0 0 0 0
8.56550630e+03 0 0 5.92080817e-02 7.38585248e-08 0 0 0 0
8.81101834e+03 0 0 5.92080817e-02 7.59755225e-08 0 0 0 0
9.06356746e+03 0 0 5.92080817e-02 7.81531994e-08 0 0 0 0
9.32335536e+03 0 0 5.92080817e-02 8.03932949e-08 0 0 0 0
9.59058953e+03 0 0 5.92080817e-02 8.26975978e-08 0 0 0 0
9.86548340e+03 0 0 5.92080817e-02 8.50679488e-08 0 0 0 0
1.01482565e+04 0 0 5.92080817e-02 8.75062408e-08 0 0 0 0
1.04391347e+04 0 0 5.92080817e-02 9.00144213e-08 0 0 0 0
1.07383504e+04 0 0 5.92080817e-02 9.25944934e-08 0 0 0 0
1.10461423e+04 0 0 5.92080817e-02 9.52485178e-08 0 0 0 0
1.13627565e+04 0 0 5.92080817e-02 9.79786142e-08 0 0 0 0
1.16884458e+04 0 0 5.92080817e-02 1.00786963e-07 0 0 0 0
1.20234703e+04 0 0 5.92080817e-02 1.03675807e-07 0 0 0 0
1.23680975e+04 0 0 5.92080817e-02 1.06647454e-07 0 0 0 0
1.27226028e+04 0 0 5.92080817e-02 1.09704277e-07 0 0 0 0
1.30872691e+04 0 0 5.92080817e-02 1.12848717e-07 0 0 0 0
1.34623879e+04 0 0 5.92080817e-02 1.16083285e-07 0 0 0 0
1.38482586e+04 0 0 5.92080817e-02 1.19410566e-07 0 0 0 0
1.42451895e+04 0 0 5.92080817e-02 1.22833216e-07 0 0 0 0
1.46534976e+04 0 0 5.92080817e-02 1.26353969e-07 0 0 0 0
1.50735090e+04 0 0 5.92080817e-02 1.29975637e-07 0 0 0 0
1.55055591e+04 0 0 5.92080817e-02 1.33701113e-07 0 0 0 0
1.59499930e+04 0 0 5.92080817e-02 1.37533371e-07 0 0 0 0
1.64071657e+04 0 0 5.92080817e-02 1.41475473e-07 0 0 0 0
1.68774422e+04 0 0 5.92080817e-02 1.45530567e-07 0 0 0 0
1.73611982e+04 0 0 5.92080817e-02 1.49701892e-07 0 0 0 0
1.78588201e+04 0 0 5.92080817e-02 1.53992778e-07 0 0 0 0
1.83707052e+04 0 0 5.92080817e-02 1.58406654e-07 0 0 0 0
1.88972625e+04 0 0 5.92080817e-02 1.62947044e-07 0 0 0 0
1.94389124e+04 0 0 5.92080817e-02 1.67617575e-07 0 0 0 0
1.99960875e+04 0 0 5.92080817e-02 1.72421977e-07 0 0 0 0
2.05692328e+04 0 0 5.92080817e-02 1.77364087e-07 0 0 0 0
2.11588062e+04 0 0 5.92080817e-02 1.82447851e-07 0 0 0 0
2.17652784e+04 0 0 5.92080817e-02 1.87677331e-07 0 0 0 0
2.23891339e+04 0 0 5.92080817e-02 1.93056703e-07 0 0 0 0
2.30308708e+04 0 0 5.92080817e-02 1.98590264e-07 0 0 0 0
2.36910018e+04 0 0 5.92080817e-02 2.04282432e-07 0 0 0 0
2.43700540e+04 0 0 5.92080817e-02 2.10137754e-07 0 0 0 0
2.50685698e+04 0 0 5.92080817e-02 2.16160906e-07 0 0 0 0
2.57871071e+04 0 0 5.92080817e-02 2.22356699e-07 0 0 0 0
2.65262398e+04 0 0 5.92080817e-02 2.28730082e-07 0 0 0 0
2.72865581e+04 0 0 5.92080817e-02 2.35286144e-07 0 0 0 0
2.80686693e+04 0 0 5.92080817e-02 2.42030121e-07 0 0 0 0
2.88731980e+04 0 0 5.92080817e-02 2.48967400e-07 0 0 0 0
2.97007869e+04 0 0 5.92080817e-02 2.56103522e-07 0 0 0 0
3.05520969e+04 0 0 5.92080817e-02 2.63444186e-07 0 0 0 0
3.14278078e+04 0 0 5.92080817e-02 2.70995254e-07 0 0 0 0
3.23286191e+04 0 0 5.92080817e-02 2.78762757e-07 0 0 0 0
3.32552503e+04 0 0 5.92080817e-02 2.86752899e-07 0 0 0 0
3.42084414e+04 0 0 5.92080817e-02 2.94972062e-07 0 0 0 0
3.51889537e+04 0 0 5.92080817e-02 3.03426810e-07 0 0 0 0
3.61975703e+04 0 0 5.92080817e-02 3.12123895e-07 0 0 0 0
3.72350967e+04 0 0 5.92080817e-02 3.21070264e-07 0 0 0 0
3.83023617e+04 0 0 5.92080817e-02 3.30273061e-07 0 0 0 0
3.94002175e+04 0 0 5.92080817e-02 3.39739637e-07 0 0 0 0
4.05295410e+04 0 0 5.92080817e-02 3.49477552e-07 0 0 0 0
4.16912342e+04 0 0 5.92080817e-02 3.59494584e-07 0 0 0 0
4.28862248e+04 0 0 5.92080817e-02 3.69798733e-07 0 0 0 0
4.41154673e+04 0 0 5.92080817e-02 3.80398228e-07 0 0 0 0
4.53799435e+04 0 0 5.92080817e-02 3.91301536e-07 0 0 0 0
4.66806631e+04 0 0 5.92080817e-02 4.02517364e-07 0 0 0 0
4.80186652e+04 0 0 5.92080817e-02 4.14054669e-07 0 0 0 0
4.93950182e+04 0 0 5.92080817e-02 4.25922668e-07 0 0 0 0
5.08108214e+04 0 0 5.92080817e-02 4.38130837e-07 0 0 0 0
5.22672056e+04 0 0 5.92080817e-02 4.50688927e-07 0 0 0 0
5.37653340e+04 0 0 5.92080817e-02 4.63606969e-07 0 0 0 0
5.53064031e+04 0 0 5.92080817e-02 4.76895278e-07 0 0 0 0
5.68916436e+04 0 0 5.92080817e-02 4.90564469e-07 0 0 0 0
5.85223217e+04 0 0 5.92080817e-02 5.04625459e-07 0 0 0 0
6.01997397e+04 0 0 5.92080817e-02 5.19089477e-07 0 0 0 0
6.19252374e+04 0 0 5.92080817e-02 5.33968075e-07 0 0 0 0
6.37001927e+04 0 0 5.92080817e-02 5.49273137e-07 0 0 0 0
6.55260234e+04 0 0 5.92080817e-02 5.65016887e-07 0 0 0 0
6.74041876e+04 0 0 5.92080817e-02 5.81211897e-07 0 0 0 0
6.93361854e+04 0 0 5.92080817e-02 5.97871103e-07 0 0 0 0
7.13235599e+04 0 0 5.92080817e-02 6.15007810e-07 0 0 0 0
7.33678982e+04 0 0 5.92080817e-02 6.32635705e-07 0 0 0 0
7.54708331e+04 0 0 5.92080817e-02 6.50768866e-07 0 0 0 0
7.76340442e+04 0 0 5.92080817e-02 6.69421776e-07 0 0 0 0
7.98592591e+04 0 0 5.92080817e-02 6.88609332e-07 0 0 0 0
8.21482551e+04 0 0 5.92080817e-02 7.08346859e-07 0 0 0 0
8.45028602e+04 0 0 5.92080817e-02 7.28650121e-07 0 0 0 0
8.69249552e+04 0 0 5.92080817e-02 7.49535332e-07 0 0 0 0
8.94164743e+04 0 0 5.92080817e-02 7.71019175e-07 0 0 0 0
9.19794076e+04 0 0 5.92080817e-02 7.93118806e-07 0 0 0 0
9.46158019e+04 0 0 5.92080817e-02 8.15851877e-07 0 0 0 0
9.73277628e+04 0 0 5.92080817e-02 8.39236543e-07 0 0 0 0
1.00117456e+05 0 0 5.92080817e-02 8.63291482e-07 0 0 0 0
1.02987110e+05 0 0 5.92080817e-02 8.88035905e-07 0 0 0 0
1.05939017e+05 0 0 5.92080817e-02 9.13489575e-07 0 0 0 0
1.08975534e+05 0 0 5.92080817e-02 9.39672821e-07 0 0 0 0
1.12099086e+05 0 0 5.92080817e-02 9.66606555e-07 0 0 0 0
1.15312168e+05 0 0 5.92080816e-02 9.94312288e-07 0 0 0 0
1.18617347e+05 0 0 5.92080816e-02 1.02281215e-06 0 0 0 0
1.22017261e+05 0 0 5.92080816e-02 1.05212890e-06 0 0 0 0
1.25514626e+05 0 0 5.92080816e-02 1.08228595e-06 0 0 0 0
1.29112236e+05 0 0 5.92080816e-02 1.11330739e-06 0 0 0 0
1.32812964e+05 0 0 5.92080816e-02 1.14521799e-06 0 0 0 0
1.36619766e+05 0 0 5.92080816e-02 1.17804325e-06 0 0 0 0
1.40535681e+05 0 0 5.92080816e-02 1.21180938e-06 0 0 0 0
1.44563838e+05 0 0 5.92080816e-02 1.24654334e-06 0 0 0 0
1.48707453e+05 0 0 5.92080816e-02 1.28227287e-06 0 0 0 0
1.52969836e+05 0 0 5.92080816e-02 1.31902652e-06 0 0 0 0
1.57354391e+05 0 0 5.92080816e-02 1.35683364e-06 0 0 0 0
1.61864621e+05 0 0 5.92080816e-02 1.39572442e-06 0 0 0 0
1.66504126e+05 0 0 5.92080816e-02 1.43572993e-06 0 0 0 0
1.71276613e+05 0 0 5.92080816e-02 1.47688211e-06 0 0 0 0
1.76185893e+05 0 0 5.92080816e-02 1.51921383e-06 0 0 0 0
1.81235888e+05 0 0 5.92080816e-02 1.56275890e-06 0 0 0 0
1.86430629e+05 0 0 5.92080815e-02 1.60755211e-06 0 0 0 0
1.91774267e+05 0 0 5.92080815e-02 1.65362922e-06 0 0 0 0
1.97271069e+05 0 0 5.92080815e-02 1.70102704e-06 0 0 0 0
2.02925425e+05 0 0 5.92080815e-02 1.74978342e-06 0 0 0 0
2.08741851e+05 0 0 5.92080815e-02 1.79993730e-06 0 0 0 0
2.14724993e+05 0 0 5.92080815e-02 1.85152874e-06 0 0 0 0
2.20879629e+05 0 0 5.92080815e-02 1.90459895e-06 0 0 0 0
2.27210674e+05 0 0 5.92080815e-02 1.95919030e-06 0 0 0 0
2.33723185e+05 0 0 5.92080814e-02 2.01534641e-06 0 0 0 0
2.40422364e+05 0 0 5.92080814e-02 2.07311212e-06 0 0 0 0
2.47313560e+05 0 0 5.92080814e-02 2.13253358e-06 0 0 0 0
2.54402277e+05 0 0 5.92080814e-02 2.19365822e-06 0 0 0 0
2.61694178e+05 0 0 5.92080814e-02 2.25653489e-06 0 0 0 0
2.69195086e+05 0 0 5.92080814e-02 2.32121379e-06 0 0 0 0
2.76910991e+05 0 0 5.92080813e-02 2.38774659e-06 0 0 0 0
2.84848056e+05 0 0 5.92080813e-02 2.45618642e-06 0 0 0 0
2.93012620e+05 0 0 5.92080813e-02 2.52658795e-06 0 0 0 0
3.01411205e+05 0 0 5.92080813e-02 2.59900740e-06 0 0 0 0
3.10050516e+05 0 0 5.92080812e-02 2.67350262e-06 0 0 0 0
3.18937456e+05 0 0 5.92080812e-02 2.75013310e-06 0 0 0 0
3.28079120e+05 0 0 5.92080812e-02 2.82896004e-06 0 0 0 0
3.37482811e+05 0 0 5.92080811e-02 2.91004642e-06 0 0 0 0
3.47156039e+05 0 0 5.92080811e-02 2.99345698e-06 0 0 0 0
3.57106529e+05 0 0 5.92080811e-02 3.07925836e-06 0 0 0 0
3.67342229e+05 0 0 5.92080810e-02 3.16751908e-06 0 0 0 0
3.77871313e+05 0 0 5.92080810e-02 3.25830962e-06 0 0 0 0
3.88702192e+05 0 0 5.92080810e-02 3.35170252e-06 0 0 0 0
3.99843514e+05 0 0 5.92080809e-02 3.44777236e-06 0 0 0 0
4.11304179e+05 0 0 5.92080809e-02 3.54659588e-06 0 0 0 0
4.23093339e+05 0 0 5.92080808e-02 3.64825200e-06 0 0 0 0
4.35220411e+05 0 0 5.92080808e-02 3.75282192e-06 0 0 0 0
4.47695079e+05 0 0 5.92080807e-02 3.86038916e-06 0 0 0 0
4.60527307e+05 0 0 5.92080807e-02 3.97103964e-06 0 0 0 0
4.73727344e+05 0 0 5.92080806e-02 4.08486173e-06 0 0 0 0
4.87305732e+05 0 0 5.92080805e-02 4.20194636e-06 0 0 0 0
5.01273315e+05 0 0 5.92080805e-02 4.32238703e-06 0 0 0 0
5.15641250e+05 0 0 5.92080804e-02 4.44627995e-06 0 0 0 0
5.30421011e+05 0 0 5.92080803e-02 4.57372407e-06 0 0 0 0
5.45624402e+05 0 0 5.92080802e-02 4.70482119e-06 0 0 0 0
5.61263566e+05 0 0 5.92080801e-02 4.83967603e-06 0 0 0 0
5.77350994e+05 0 0 5.92080801e-02 4.97839629e-06 0 0 0 0
5.93899533e+05 0 0 5.92080800e-02 5.12109278e-06 0 0 0 0
6.10922401e+05 0 0 5.92080799e-02 5.26787949e-06 0 0 0 0
6.28433194e+05 0 0 5.92080797e-02 5.41887365e-06 0 0 0 0
6.46445896e+05 0 0 5.92080796e-02 5.57419588e-06 0 0 0 0
6.64974894e+05 0 0 5.92080795e-02 5.73397024e-06 0 0 0 0
6.84034987e+05 0 0 5.92080794e-02 5.89832436e-06 0 0 0 0
7.03641396e+05 0 0 5.92080792e-02 6.06738953e-06 0 0 0 0
7.23809782e+05 0 0 5.92080791e-02 6.24130078e-06 0 0 0 0
7.44556251e+05 0 0 5.92080790e-02 6.42019705e-06 0 0 0 0
7.65897374e+05 0 0 5.92080788e-02 6.60422124e-06 0 0 0 0
7.87850195e+05 0 0 5.92080786e-02 6.79352034e-06 0 0 0 0
8.10432247e+05 0 0 5.92080784e-02 6.98824557e-06 0 0 0 0
8.33661565e+05 0 0 5.92080783e-02 7.18855249e-06 0 0 0 0
8.57556703e+05 0 0 5.92080781e-02 7.39460111e-06 0 0 0 0
8.82136744e+05 0 0 5.92080778e-02 7.60655603e-06 0 0 0 0
9.07421319e+05 0 0 5.92080776e-02 7.82458658e-06 0 0 0 0
9.33430623e+05 0 0 5.92080774e-02 8.04886693e-06 0 0 0 0
9.60185429e+05 0 0 5.92080771e-02 8.27957627e-06 0 0 0 0
9.87707104e+05 0 0 5.92080769e-02 8.51689890e-06 0 0 0 0
1.01601763e+06 0 0 5.92080766e-02 8.76102442e-06 0 0 0 0
1.04513962e+06 0 0 5.92080763e-02 9.01214787e-06 0 0 0 0
1.07509632e+06 0 0 5.92080760e-02 9.27046989e-06 0 0 0 0
1.10591167e+06 0 0 5.92080756e-02 9.53619687e-06 0 0 0 0
1.13761028e+06 0 0 5.92080753e-02 9.80954111e-06 0 0 0 0
1.17021746e+06 0 0 5.92080749e-02 1.00907210e-05 0 0 0 0
1.20375926e+06 0 0 5.92080745e-02 1.03799612e-05 0 0 0 0
1.23826246e+06 0 0 5.92080741e-02 1.06774929e-05 0 0 0 0
1.27375463e+06 0 0 5.92080736e-02 1.09835538e-05 0 0 0 0
1.31026410e+06 0 0 5.92080732e-02 1.12983884e-05 0 0 0 0
1.34782003e+06 0 0 5.92080727e-02 1.16222483e-05 0 0 0 0
1.38645243e+06 0 0 5.92080721e-02 1.19553924e-05 0 0 0 0
1.42619214e+06 0 0 5.92080716e-02 1.22980869e-05 0 0 0 0
1.46707091e+06 0 0 5.92080710e-02 1.26506056e-05 0 0 0 0
1.50912138e+06 0 0 5.92080704e-02 1.30132303e-05 0 0 0 0
1.55237714e+06 0 0 5.92080697e-02 1.33862508e-05 0 0 0 0
1.59687273e+06 0 0 5.92080690e-02 1.37699653e-05 0 0 0 0
1.64264369e+06 0 0 5.92080683e-02 1.41646804e-05 0 0 0 0
1.68972658e+06 0 0 5.92080675e-02 1.45707117e-05 0 0 0 0
1.73815901e+06 0 0 5.92080667e-02 1.49883837e-05 0 0 0 0
1.78797964e+06 0 0 5.92080658e-02 1.54180303e-05 0 0 0 0
1.83922828e+06 0 0 5.92080649e-02 1.58599951e-05 0 0 0 0
1.89194585e+06 0 0 5.92080639e-02 1.63146314e-05 0 0 0 0
1.94617446e+06 0 0 5.92080629e-02 1.67823027e-05 0 0 0 0
2.00195741e+06 0 0 5.92080618e-02 1.72633829e-05 0 0 0 0
2.05933927e+06 0 0 5.92080606e-02 1.77582568e-05 0 0 0 0
2.11836585e+06 0 0 5.92080594e-02 1.82673201e-05 0 0 0 0
2.17908431e+06 0 0 5.92080581e-02 1.87909800e-05 0 0 0 0
2.24154313e+06 0 0 5.92080567e-02 1.93296553e-05 0 0 0 0
2.30579220e+06 0 0 5.92080553e-02 1.98837769e-05 0 0 0 0
2.37188284e+06 0 0 5.92080538e-02 2.04537881e-05 0 0 0 0
2.43986782e+06 0 0 5.92080521e-02 2.10401449e-05 0 0 0 0
2.50980145e+06 0 0 5.92080504e-02 2.16433166e-05 0 0 0 0
2.58173957e+06 0 0 5.92080486e-02 2.22637857e-05 0 0 0 0
2.65573965e+06 0 0 5.92080467e-02 2.29020490e-05 0 0 0 0
2.73186079e+06 0 0 5.92080447e-02 2.35586171e-05 0 0 0 0
2.81016377e+06 0 0 5.92080425e-02 2.42340158e-05 0 0 0 0
2.89071114e+06 0 0 5.92080403e-02 2.49287858e-05 0 0 0 0
2.97356724e+06 0 0 5.92080379e-02 2.56434834e-05 0 0 0 0
3.05879822e+06 0 0 5.92080353e-02 2.63786809e-05 0 0 0 0
3.14647218e+06 0 0 5.92080326e-02 2.71349673e-05 0 0 0 0
3.23665911e+06 0 0 5.92080298e-02 2.79129483e-05 0 0 0 0
3.32943107e+06 0 0 5.92080268e-02 2.87132474e-05 0 0 0 0
3.42486214e+06 0 0 5.92080236e-02 2.95365059e-05 0 0 0 0
3.52302854e+06 0 0 5.92080203e-02 3.03833836e-05 0 0 0 0
3.62400866e+06 0 0 5.92080167e-02 3.12545595e-05 0 0 0 0
3.72788317e+06 0 0 5.92080130e-02 3.21507322e-05 0 0 0 0
3.83473502e+06 0 0 5.92080090e-02 3.30726205e-05 0 0 0 0
3.94464955e+06 0 0 5.92080048e-02 3.40209638e-05 0 0 0 0
4.05771455e+06 0 0 5.92080004e-02 3.49965232e-05 0 0 0 0
4.17402032e+06 0 0 5.92079957e-02 3.60000818e-05 0 0 0 0
4.29365974e+06 0 0 5.92079908e-02 3.70324452e-05 0 0 0 0
4.41672837e+06 0 0 5.92079855e-02 3.80944425e-05 0 0 0 0
4.54332451e+06 0 0 5.92079800e-02 3.91869269e-05 0 0 0 0
4.67354925e+06 0 0 5.92079741e-02 4.03107763e-05 0 0 0 0
4.80750661e+06 0 0 5.92079680e-02 4.14668942e-05 0 0 0 0
4.94530357e+06 0 0 5.92079614e-02 4.26562101e-05 0 0 0 0
5.08705019e+06 0 0 5.92079545e-02 4.38796810e-05 0 0 0 0
5.23285968e+06 0 0 5.92079472e-02 4.51382913e-05 0 0 0 0
5.38284848e+06 0 0 5.92079395e-02 4.64330544e-05 0 0 0 0
5.53713640e+06 0 0 5.92079314e-02 4.77650131e-05 0 0 0 0
5.69584665e+06 0 0 5.92079228e-02 4.91352408e-05 0 0 0 0
5.85910599e+06 0 0 5.92079138e-02 5.05448421e-05 0 0 0 0
6.02704481e+06 0 0 5.92079042e-02 5.19949540e-05 0 0 0 0
6.19979725e+06 0 0 5.92078941e-02 5.34867467e-05 0 0 0 0
6.37750126e+06 0 0 5.92078834e-02 5.50214247e-05 0 0 0 0
6.56029878e+06 0 0 5.92078721e-02 5.66002279e-05 0 0 0 0
6.74833581e+06 0 0 5.92078602e-02 5.82244325e-05 0 0 0 0
6.94176252e+06 0 0 5.92078477e-02 5.98953524e-05 0 0 0 0
7.14073339e+06 0 0 5.92078344e-02 6.16143399e-05 0 0 0 0
7.34540734e+06 0 0 5.92078204e-02 6.33827873e-05 0 0 0 0
7.55594783e+06 0 0 5.92078057e-02 6.52021279e-05 0 0 0 0
7.77252302e+06 0 0 5.92077902e-02 6.70738373e-05 0 0 0 0
7.99530588e+06 0 0 5.92077738e-02 6.89994349e-05 0 0 0 0
8.22447434e+06 0 0 5.92077565e-02 7.09804848e-05 0 0 0 0
8.46021142e+06 0 0 5.92077383e-02 7.30185976e-05 0 0 0 0
8.70270540e+06 0 0 5.92077191e-02 7.51154315e-05 0 0 0 0
8.95214996e+06 0 0 5.92076989e-02 7.72726943e-05 0 0 0 0
9.20874432e+06 0 0 5.92076776e-02 7.94921443e-05 0 0 0 0
9.47269341e+06 0 0 5.92076552e-02 8.17755921e-05 0 0 0 0
9.74420804e+06 0 0 5.92076316e-02 8.41249026e-05 0 0 0 0
1.00235051e+07 0 0 5.92076068e-02 8.65419960e-05 0 0 0 0
1.03108075e+07 0 0 5.92075806e-02 8.90288502e-05 0 0 0 0
1.06063449e+07 0 0 5.92075532e-02 9.15875018e-05 0 0 0 0
1.09103533e+07 0 0 5.92075243e-02 9.42200489e-05 0 0 0 0
1.12230754e+07 0 0 5.92074939e-02 9.69286521e-05 0 0 0 0
1.15447610e+07 0 0 5.92074621e-02 9.97155370e-05 0 0 0 0
1.18756670e+07 0 0 5.92074286e-02 1.02582996e-04 0 0 0 0
1.22160578e+07 0 0 5.92073934e-02 1.05533390e-04 0 0 0 0
1.25662051e+07 0 0 5.92073565e-02 1.08569152e-04 0 0 0 0
1.29263887e+07 0 0 5.92073179e-02 1.11692786e-04 0 0 0 0
1.32968962e+07 0 0 5.92072773e-02 1.14906874e-04 0 0 0 0
1.36780234e+07 0 0 5.92072348e-02 1.18214073e-04 0 0 0 0
1.40700749e+07 0 0 5.92071904e-02 1.21617122e-04 0 0 0 0
1.44733637e+07 0 0 5.92071438e-02 1.25118842e-04 0 0 0 0
1.48882119e+07 0 0 5.92070951e-02 1.28722138e-04 0 0 0 0
1.53149509e+07 0 0 5.92070442e-02 1.32430003e-04 0 0 0 0
1.57539214e+07 0 0 5.92069910e-02 1.36245519e-04 0 0 0 0
1.62054741e+07 0 0 5.92069354e-02 1.40171861e-04 0 0 0 0
1.66699696e+07 0 0 5.92068775e-02 1.44212300e-04 0 0 0 0
1.71477788e+07 0 0 5.92068171e-02 1.48370202e-04 0 0 0 0
1.76392835e+07 0 0 5.92067542e-02 1.52649037e-04 0 0 0 0
1.81448761e+07 0 0 5.92066886e-02 1.57052376e-04 0 0 0 0
1.86649604e+07 0 0 5.92066205e-02 1.61583895e-04 0 0 0 0
1.91999518e+07 0 0 5.92065497e-02 1.66247381e-04 0 0 0 0
1.97502776e+07 0 0 5.92064762e-02 1.71046733e-04 0 0 0 0
2.03163774e+07 0 0 5.92063999e-02 1.75985961e-04 0 0 0 0
2.08987032e+07 0 0 5.92063208e-02 1.81069197e-04 0 0 0 0
2.14977201e+07 0 0 5.92062390e-02 1.86300689e-04 0 0 0 0
2.21139066e+07 0 0 5.92061543e-02 1.91684812e-04 0 0 0 0
2.27477547e+07 0 0 5.92060668e-02 1.97226064e-04 0 0 0 0
2.33997708e+07 0 0 5.92059766e-02 2.02929076e-04 0 0 0 0
2.40704755e+07 0 0 5.92058835e-02 2.08798607e-04 0 0 0 0
2.47604045e+07 0 0 5.92057877e-02 2.14839555e-04 0 0 0 0
2.54701089e+07 0 0 5.92056892e-02 2.21056953e-04 0 0 0 0
2.62001555e+07 0 0 5.92055880e-02 2.27455977e-04 0 0 0 0
2.69511272e+07 0 0 5.92054842e-02 2.34041949e-04 0 0 0 0
2.77236240e+07 0 0 5.92053778e-02 2.40820336e-04 0 0 0 0
2.85182628e+07 0 0 5.92052690e-02 2.47796757e-04 0 0 0 0
2.93356782e+07 0 0 5.92051579e-02 2.54976985e-04 0 0 0 0
3.01765231e+07 0 0 5.92050445e-02 2.62366952e-04 0 0 0 0
3.10414690e+07 0 0 5.92049291e-02 2.69972750e-04 0 0 0 0
3.19312068e+07 0 0 5.92048117e-02 2.77800634e-04 0 0 0 0
3.28464470e+07 0 0 5.92046924e-02 2.85857030e-04 0 0 0 0
3.37879206e+07 0 0 5.92045715e-02 2.94148535e-04 0 0 0 0
3.47563795e+07 0 0 5.92044492e-02 3.02681923e-04 0 0 0 0
3.57525973e+07 0 0 5.92043256e-02 3.11464147e-04 0 0 0 0
3.67773696e+07 0 0 5.92042009e-02 3.20502348e-04 0 0 0 0
3.78315147e+07 0 0 5.92040753e-02 3.29803854e-04 0 0 0 0
3.89158747e+07 0 0 5.92039491e-02 3.39376189e-04 0 0 0 0
4.00313156e+07 0 0 5.92038224e-02 3.49227076e-04 0 0 0 0
4.11787282e+07 0 0 5.92036956e-02 3.59364445e-04 0 0 0 0
4.23590289e+07 0 0 5.92035688e-02 3.69796434e-04 0 0 0 0
4.35731605e+07 0 0 5.92034423e-02 3.80531402e-04 0 0 0 0
4.48220925e+07 0 0 5.92033163e-02 3.91577930e-04 0 0 0 0
4.61068226e+07 0 0 5.92031910e-02 4.02944830e-04 0 0 0 0
4.74283767e+07 0 0 5.92030668e-02 4.14641150e-04 0 0 0 0
4.87878103e+07 0 0 5.92029438e-02 4.26676186e-04 0 0 0 0
5.01862092e+07 0 0 5.92028224e-02 4.39059485e-04 0 0 0 0
5.16246903e+07 0 0 5.92027026e-02 4.51800855e-04 0 0 0 0
5.31044024e+07 0 0 5.92025849e-02 4.64910375e-04 0 0 0 0
5.46265272e+07 0 0 5.92024693e-02 4.78398403e-04 0 0 0 0
5.61922806e+07 0 0 5.92023562e-02 4.92275581e-04 0 0 0 0
5.78029129e+07 0 0 5.92022457e-02 5.06552854e-04 0 0 0 0
5.94597106e+07 0 0 5.92021381e-02 5.21241468e-04 0 0 0 0
6.11639968e+07 0 0 5.92020335e-02 5.36352992e-04 0 0 0 0
6.29171328e+07 0 0 5.92019321e-02 5.51899320e-04 0 0 0 0
6.47205188e+07 0 0 5.92018341e-02 5.67892683e-04 0 0 0 0
6.65755949e+07 0 0 5.92017398e-02 5.84345664e-04 0 0 0 0
6.84838429e+07 0 0 5.92016492e-02 6.01271207e-04 0 0 0 0
7.04467867e+07 0 0 5.92015625e-02 6.18682626e-04 0 0 0 0
7.24659942e+07 0 0 5.92014798e-02 6.36593622e-04 0 0 0 0
7.45430780e+07 0 0 5.92014014e-02 6.55018291e-04 0 0 0 0
7.66796969e+07 0 0 5.92013272e-02 6.73971138e-04 0 0 0 0
7.88775575e+07 0 0 5.92012576e-02 6.93467090e-04 0 0 0 0
8.11384151e+07 0 0 5.92011925e-02 7.13521507e-04 0 0 0 0
8.34640753e+07 0 0 5.92011320e-02 7.34150198e-04 0 0 0 0
8.58563957e+07 0 0 5.92010764e-02 7.55369433e-04 0 0 0 0
8.83172869e+07 0 0 5.92010257e-02 7.77195955e-04 0 0 0 0
9.08487143e+07 0 0 5.92009799e-02 7.99646998e-04 0 0 0 0
9.34526996e+07 0 0 5.92009393e-02 8.22740299e-04 0 0 0 0
9.61313227e+07 0 0 5.92009038e-02 8.46494111e-04 0 0 0 0
9.88867228e+07 0 0 5.92008737e-02 8.70927222e-04 0 0 0 0
1.01721101e+08 0 0 5.92008490e-02 8.96058966e-04 0 0 0 0
1.04636720e+08 0 0 5.92008297e-02 9.21909244e-04 0 0 0 0
1.07635909e+08 0 0 5.92008161e-02 9.48498535e-04 0 0 0 0
1.10721064e+08 0 0 5.92008082e-02 9.75847915e-04 0 0 0 0
1.13894648e+08 0 0 5.92008062e-02 1.00397907e-03 0 0 0 0
1.17159196e+08 0 0 5.92008101e-02 1.03291433e-03 0 0 0 0
1.20517315e+08 0 0 5.92008202e-02 1.06267666e-03 0 0 0 0
1.23971688e+08 0 0 5.92008365e-02 1.09328969e-03 0 0 0 0
1.27525073e+08 0 0 5.92008592e-02 1.12477775e-03 0 0 0 0
1.31180308e+08 0 0 5.92008884e-02 1.15716586e-03 0 0 0 0
1.34940313e+08 0 0 5.92009245e-02 1.19047979e-03 0 0 0 0
1.38808090e+08 0 0 5.92009675e-02 1.22474602e-03 0 0 0 0
1.42786729e+08 0 0 5.92010176e-02 1.25999182e-03 0 0 0 0
1.46879408e+08 0 0 5.92010752e-02 1.29624524e-03 0 0 0 0
1.51089394e+08 0 0 5.92011403e-02 1.33353515e-03 0 0 0 0
1.55420050e+08 0 0 5.92012134e-02 1.37189124e-03 0 0 0 0
1.59874836e+08 0 0 5.92012946e-02 1.41134407e-03 0 0 0 0
1.64457308e+08 0 0 5.92013843e-02 1.45192506e-03 0 0 0 0
1.69171128e+08 0 0 5.92014828e-02 1.49366656e-03 0 0 0 0
1.74020058e+08 0 0 5.92015905e-02 1.53660184e-03 0 0 0 0
1.79007974e+08 0 0 5.92017077e-02 1.58076512e-03 0 0 0 0
1.84138857e+08 0 0 5.92018348e-02 1.62619162e-03 0 0 0 0
1.89416806e+08 0 0 5.92019723e-02 1.67291755e-03 0 0 0 0
1.94846036e+08 0 0 5.92021207e-02 1.72098020e-03 0 0 0 0
2.00430884e+08 0 0 5.92022804e-02 1.77041788e-03 0 0 0 0
2.06175809e+08 0 0 5.92024519e-02 1.82127004e-03 0 0 0 0
2.12085401e+08 0 0 5.92026359e-02 1.87357726e-03 0 0 0 0
2.18164378e+08 0 0 5.92028329e-02 1.92738126e-03 0 0 0 0
2.24417597e+08 0 0 5.92030436e-02 1.98272497e-03 0 0 0 0
2.30850050e+08 0 0 5.92032686e-02 2.03965257e-03 0 0 0 0
2.37466876e+08 0 0 5.92035088e-02 2.09820948e-03 0 0 0 0
2.44273360e+08 0 0 5.92037648e-02 2.15844243e-03 0 0 0 0
2.51274937e+08 0 0 5.92040375e-02 2.22039951e-03 0 0 0 0
2.58477199e+08 0 0 5.92043278e-02 2.28413016e-03 0 0 0 0
2.65885899e+08 0 0 5.92046366e-02 2.34968525e-03 0 0 0 0
2.73506953e+08 0 0 5.92049649e-02 2.41711711e-03 0 0 0 0
2.81346449e+08 0 0 5.92053138e-02 2.48647958e-03 0 0 0 0
2.89410647e+08 0 0 5.92056844e-02 2.55782802e-03 0 0 0 0
2.97705988e+08 0 0 5.92060779e-02 2.63121938e-03 0 0 0 0
3.06239098e+08 0 0 5.92064954e-02 2.70671226e-03 0 0 0 0
3.15016791e+08 0 0 5.92069385e-02 2.78436693e-03 0 0 0 0
3.24046078e+08 0 0 5.92074085e-02 2.86424538e-03 0 0 0 0
3.33334170e+08 0 0 5.92079068e-02 2.94641139e-03 0 0 0 0
3.42888486e+08 0 0 5.92084352e-02 3.03093054e-03 0 0 0 0
3.52716655e+08 0 0 5.92089952e-02 3.11787032e-03 0 0 0 0
3.62826529e+08 0 0 5.92095887e-02 3.20730013e-03 0 0 0 0
3.73226180e+08 0 0 5.92102176e-02 3.29929137e-03 0 0 0 0
3.83923916e+08 0 0 5.92108839e-02 3.39391749e-03 0 0 0 0
3.94928279e+08 0 0 5.92115897e-02 3.49125402e-03 0 0 0 0
4.06248059e+08 0 0 5.92123373e-02 3.59137868e-03 0 0 0 0
4.17892297e+08 0 0 5.92131290e-02 3.69437140e-03 0 0 0 0
4.29870291e+08 0 0 5.92139675e-02 3.80031439e-03 0 0 0 0
4.42191610e+08 0 0 5.92148553e-02 3.90929224e-03 0 0 0 0
4.54866093e+08 0 0 5.92157953e-02 4.02139195e-03 0 0 0 0
4.67903863e+08 0 0 5.92167905e-02 4.13670299e-03 0 0 0 0
4.81315333e+08 0 0 5.92178442e-02 4.25531742e-03 0 0 0 0
4.95111214e+08 0 0 5.92189595e-02 4.37732993e-03 0 0 0 0
5.09302525e+08 0 0 5.92201403e-02 4.50283790e-03 0 0 0 0
5.23900600e+08 0 0 5.92213901e-02 4.63194153e-03 0 0 0 0
5.38917098e+08 0 0 5.92227130e-02 4.76474386e-03 0 0 0 0
5.54364011e+08 0 0 5.92241133e-02 4.90135088e-03 0 0 0 0
5.70253678e+08 0 0 5.92255953e-02 5.04187164e-03 0 0 0 0
5.86598788e+08 0 0 5.92271639e-02 5.18641829e-03 0 0 0 0
6.03412396e+08 0 0 5.92288240e-02 5.33510617e-03 0 0 0 0
6.20707930e+08 0 0 5.92305809e-02 5.48805396e-03 0 0 0 0
6.38499204e+08 0 0 5.92324404e-02 5.64538372e-03 0 0 0 0
6.56800427e+08 0 0 5.92344082e-02 5.80722098e-03 0 0 0 0
6.75626216e+08 0 0 5.92364907e-02 5.97369488e-03 0 0 0 0
6.94991606e+08 0 0 5.92386945e-02 6.14493827e-03 0 0 0 0
7.14912063e+08 0 0 5.92410267e-02 6.32108776e-03 0 0 0 0
7.35403498e+08 0 0 5.92434948e-02 6.50228389e-03 0 0 0 0
7.56482277e+08 0 0 5.92461066e-02 6.68867121e-03 0 0 0 0
7.78165234e+08 0 0 5.92488704e-02 6.88039841e-03 0 0 0 0
8.00469687e+08 0 0 5.92517951e-02 7.07761843e-03 0 0 0 0
8.23413450e+08 0 0 5.92548900e-02 7.28048856e-03 0 0 0 0
8.47014847e+08 0 0 5.92581651e-02 7.48917061e-03 0 0 0 0
8.71292728e+08 0 0 5.92616307e-02 7.70383100e-03 0 0 0 0
8.96266483e+08 0 0 5.92652980e-02 7.92464090e-03 0 0 0 0
9.21956057e+08 0 0 5.92691786e-02 8.15177637e-03 0 0 0 0
9.48381969e+08 0 0 5.92732850e-02 8.38541849e-03 0 0 0 0
9.75565323e+08 0 0 5.92776302e-02 8.62575353e-03 0 0 0 0
1.00352783e+09 0 0 5.92822282e-02 8.87297306e-03 0 0 0 0
1.03229182e+09 0 0 5.92870937e-02 9.12727410e-03 0 0 0 0
1.06188027e+09 0 0 5.92922420e-02 9.38885933e-03 0 0 0 0
1.09231682e+09 0 0 5.92976898e-02 9.65793716e-03 0 0 0 0
1.12362576e+09 0 0 5.93034544e-02 9.93472197e-03 0 0 0 0
1.15583210e+09 0 0 5.93095543e-02 1.02194343e-02 0 0 0 0
1.18896157e+09 0 0 5.93160088e-02 1.05123008e-02 0 0 0 0
1.22304063e+09 0 0 5.93228386e-02 1.08135547e-02 0 0 0 0
1.25809649e+09 0 0 5.93300655e-02 1.11234360e-02 0 0 0 0
1.29415715e+09 0 0 5.93377126e-02 1.14421913e-02 0 0 0 0
1.33125142e+09 0 0 5.93458043e-02 1.17700743e-02 0 0 0 0
1.36940891e+09 0 0 5.93543664e-02 1.21073458e-02 0 0 0 0
1.40866011e+09 0 0 5.93634262e-02 1.24542744e-02 0 0 0 0
1.44903636e+09 0 0 5.93730128e-02 1.28111358e-02 0 0 0 0
1.49056991e+09 0 0 5.93831566e-02 1.31782138e-02 0 0 0 0
1.53329393e+09 0 0 5.93938901e-02 1.35558004e-02 0 0 0 0
1.57724254e+09 0 0 5.94052474e-02 1.39441955e-02 0 0 0 0
1.62245085e+09 0 0 5.94172650e-02 1.43437079e-02 0 0 0 0
1.66895495e+09 0 0 5.94299810e-02 1.47546548e-02 0 0 0 0
1.71679200e+09 0 0 5.94434361e-02 1.51773625e-02 0 0 0 0
1.76600019e+09 0 0 5.94576732e-02 1.56121667e-02 0 0 0 0
1.81661884e+09 0 0 5.94727377e-02 1.60594124e-02 0 0 0 0
1.86868836e+09 0 0 5.94886777e-02 1.65194542e-02 0 0 0 0
1.92225034e+09 0 0 5.95055439e-02 1.69926571e-02 0 0 0 0
1.97734756e+09 0 0 5.95233903e-02 1.74793961e-02 0 0 0 0
2.03402403e+09 0 0 5.95422737e-02 1.79800567e-02 0 0 0 0
2.09232500e+09 0 0 5.95622544e-02 1.84950354e-02 0 0 0 0
2.15229705e+09 0 0 5.95833959e-02 1.90247398e-02 0 0 0 0
2.21398807e+09 0 0 5.96057658e-02 1.95695889e-02 0 0 0 0
2.27744734e+09 0 0 5.96294353e-02 2.01300135e-02 0 0 0 0
2.34272553e+09 0 0 5.96544798e-02 2.07064564e-02 0 0 0 0
2.40987478e+09 0 0 5.96809792e-02 2.12993728e-02 0 0 0 0
2.47894872e+09 0 0 5.97090178e-02 2.19092305e-02 0 0 0 0
2.55000252e+09 0 0 5.97386850e-02 2.25365104e-02 0 0 0 0
2.62309292e+09 0 0 5.97700752e-02 2.31817069e-02 0 0 0 0
2.69827830e+09 0 0 5.98032885e-02 2.38453278e-02 0 0 0 0
2.77561872e+09 0 0 5.98384304e-02 2.45278954e-02 0 0 0 0
2.85517593e+09 0 0 5.98756129e-02 2.52299460e-02 0 0 0 0
2.93701348e+09 0 0 5.99149543e-02 2.59520309e-02 0 0 0 0
3.02119673e+09 0 0 5.99565798e-02 2.66947167e-02 0 0 0 0
3.10779292e+09 0 0 6.00006216e-02 2.74585853e-02 0 0 0 0
3.19687120e+09 0 0 6.00472198e-02 2.82442346e-02 0 0 0 0
3.28850272e+09 0 0 6.00965226e-02 2.90522790e-02 0 0 0 0
3.38276066e+09 0 0 6.01486867e-02 2.98833494e-02 0 0 0 0
3.47972031e+09 0 0 6.02038776e-02 3.07380939e-02 0 0 0 0
3.57945910e+09 0 0 6.02622706e-02 3.16171782e-02 0 0 0 0
3.68205669e+09 0 0 6.03240512e-02 3.25212858e-02 0 0 0 0
3.78759502e+09 0 0 6.03894153e-02 3.34511187e-02 0 0 0 0
3.89615838e+09 0 0 6.04585703e-02 3.44073976e-02 0 0 0 0
4.00783349e+09 0 0 6.05317354e-02 3.53908623e-02 0 0 0 0
4.12270952e+09 0 0 6.06091424e-02 3.64022725e-02 0 0 0 0
4.24087823e+09 0 0 6.06910365e-02 3.74424075e-02 0 0 0 0
4.36243399e+09 0 0 6.07776771e-02 3.85120675e-02 0 0 0 0
4.48747389e+09 0 0 6.08693381e-02 3.96120732e-02 0 0 0 0
4.61609780e+09 0 0 6.09663095e-02 4.07432669e-02 0 0 0 0
4.74840843e+09 0 0 6.10688978e-02 4.19065124e-02 0 0 0 0
4.88451147e+09 0 0 6.11774269e-02 4.31026958e-02 0 0 0 0
5.02451561e+09 0 0 6.12922393e-02 4.43327255e-02 0 0 0 0
5.16853268e+09 0 0 6.14136972e-02 4.55975330e-02 0 0 0 0
5.31667768e+09 0 0 6.15421833e-02 4.68980730e-02 0 0 0 0
5.46906895e+09 0 0 6.16781023e-02 4.82353240e-02 0 0 0 0
5.62582819e+09 0 0 6.18218817e-02 4.96102884e-02 0 0 0 0
5.78708061e+09 0 0 6.19739736e-02 5.10239930e-02 0 0 0 0
5.95295498e+09 0 0 6.21348555e-02 5.24774894e-02 0 0 0 0
6.12358378e+09 0 0 6.23050321e-02 5.39718540e-02 0 0 0 0
6.29910330e+09 0 0 6.24850369e-02 5.55081887e-02 0 0 0 0
6.47965371e+09 0 0 6.26754332e-02 5.70876206e-02 0 0 0 0
6.66537922e+09 0 0 6.28768164e-02 5.87113028e-02 0 0 0 0
6.85642815e+09 0 0 6.30898152e-02 6.03804141e-02 0 0 0 0
7.05295309e+09 0 0 6.33150939e-02 6.20961593e-02 0 0 0 0
7.25511101e+09 0 0 6.35533541e-02 6.38597692e-02 0 0 0 0
7.46306335e+09 0 0 6.38053365e-02 6.56725009e-02 0 0 0 0
7.67697620e+09 0 0 6.40718234e-02 6.75356373e-02 0 0 0 0
7.89702042e+09 0 0 6.43536406e-02 6.94504873e-02 0 0 0 0
8.12337173e+09 0 0 6.46516600e-02 7.14183857e-02 0 0 0 0
8.35621092e+09 0 0 6.49668017e-02 7.34406926e-02 0 0 0 0
8.59572395e+09 0 0 6.53000370e-02 7.55187932e-02 0 0 0 0
8.84210211e+09 0 0 6.56523904e-02 7.76540973e-02 0 0 0 0
9.09554218e+09 0 0 6.60249431e-02 7.98480392e-02 0 0 0 0
9.35624657e+09 0 0 6.64188353e-02 8.21020760e-02 0 0 0 0
9.62442350e+09 0 0 6.68352698e-02 8.44176878e-02 0 0 0 0
9.90028715e+09 0 0 6.72755144e-02 8.67963761e-02 0 0 0 0
1.01840578e+10 0 0 6.77409059e-02 8.92396629e-02 0 0 0 0
1.04759622e+10 0 0 6.82328533e-02 9.17490896e-02 0 0 0 0
1.07762334e+10 0 0 6.87528410e-02 9.43262148e-02 0 0 0 0
1.10851113e+10 0 0 6.93024330e-02 9.69726136e-02 0 0 0 0
1.14028424e+10 0 0 6.98832764e-02 9.96898749e-02 0 0 0 0
1.17296807e+10 0 0 7.04971053e-02 1.02479599e-01 0 0 0 0
1.20658870e+10 0 0 7.11457451e-02 1.05343398e-01 0 0 0 0
1.24117301e+10 0 0 7.18311166e-02 1.08282887e-01 0 0 0 0
1.27674859e+10 0 0 7.25552400e-02 1.11299688e-01 0 0 0 0
1.31334388e+10 0 0 7.33202400e-02 1.14395422e-01 0 0 0 0
1.35098809e+10 0 0 7.41283496e-02 1.17571708e-01 0 0 0 0
1.38971129e+10 0 0 7.49819153e-02 1.20830156e-01 0 0 0 0
1.42954441e+10 0 0 7.58834015e-02 1.24172366e-01 0 0 0 0
1.47051927e+10 0 0 7.68353953e-02 1.27599920e-01 0 0 0 0
1.51266858e+10 0 0 7.78406115e-02 1.31114379e-01 0 0 0 0
1.55602601e+10 0 0 7.89018973e-02 1.34717274e-01 0 0 0 0
1.60062619e+10 0 0 8.00222372e-02 1.38410106e-01 0 0 0 0
1.64650474e+10 0 0 8.12047581e-02 1.42194330e-01 0 0 0 0
1.69369830e+10 0 0 8.24527336e-02 1.46071355e-01 0 0 0 0
1.74224456e+10 0 0 8.37695892e-02 1.50042532e-01 0 0 0 0
1.79218230e+10 0 0 8.51589067e-02 1.54109147e-01 0 0 0 0
1.84355140e+10 0 0 8.66244287e-02 1.58272409e-01 0 0 0 0
1.89639288e+10 0 0 8.81700626e-02 1.62533444e-01 0 0 0 0
1.95074895e+10 0 0 8.97998850e-02 1.66893279e-01 0 0 0 0
2.00666303e+10 0 0 9.15181447e-02 1.71352833e-01 0 0 0 0
2.06417976e+10 0 0 9.33292665e-02 1.75912903e-01 0 0 0 0
2.12334509e+10 0 0 9.52378535e-02 1.80574155e-01 0 0 0 0
2.18420626e+10 0 0 9.72486893e-02 1.85337101e-01 0 0 0 0
2.24681189e+10 0 0 9.93667398e-02 1.90202091e-01 0 0 0 0
2.31121198e+10 0 0 1.01597154e-01 1.95169295e-01 0 0 0 0
2.37745796e+10 0 0 1.03945262e-01 2.00238684e-01 0 0 0 0
2.44560274e+10 0 0 1.06416578e-01 2.05410015e-01 0 0 0 0
2.51570075e+10 0 0 1.09016793e-01 2.10682808e-01 0 0 0 0
2.58780797e+10 0 0 1.11751777e-01 2.16056330e-01 0 0 0 0
2.66198198e+10 0 0 1.14627568e-01 2.21529573e-01 0 0 0 0
2.73828204e+10 0 0 1.17650371e-01 2.27101232e-01 0 0 0 0
2.81676908e+10 0 0 1.20826547e-01 2.32769684e-01 0 0 0 0
2.89750578e+10 0 0 1.24162604e-01 2.38532963e-01 0 0 0 0
2.98055662e+10 0 0 1.27665185e-01 2.44388740e-01 0 0 0 0
3.06598795e+10 0 0 1.31341055e-01 2.50334294e-01 0 0 0 0
3.15386798e+10 0 0 1.35197084e-01 2.56366496e-01 0 0 0 0
3.24426690e+10 0 0 1.39240226e-01 2.62481773e-01 0 0 0 0
3.33725692e+10 0 0 1.43477502e-01 2.68676097e-01 0 0 0 0
3.43291230e+10 0 0 1.47915973e-01 2.74944950e-01 0 0 0 0
3.53130943e+10 0 0 1.52562713e-01 2.81283307e-01 0 0 0 0
3.63252692e+10 0 0 1.57424777e-01 2.87685612e-01 0 0 0 0
3.73664558e+10 0 0 1.62509173e-01 2.94145754e-01 0 0 0 0
3.84374859e+10 0 0 1.67822818e-01 3.00657052e-01 0 0 0 0
3.95392147e+10 0 0 1.73372506e-01 3.07212233e-01 0 0 0 0
4.06725223e+10 0 0 1.79164855e-01 3.13803417e-01 0 0 0 0
4.18383138e+10 0 0 1.85206271e-01 3.20422106e-01 0 0 0 0
4.30375201e+10 0 0 1.91502890e-01 3.27059171e-01 0 0 0 0
4.42710992e+10 0 0 1.98060528e-01 3.33704849e-01 0 0 0 0
4.55400362e+10 0 0 2.04884626e-01 3.40348738e-01 0 0 0 0
4.68453446e+10 0 0 2.11980190e-01 3.46979803e-01 0 0 0 0
4.81880668e+10 0 0 2.19351732e-01 3.53586380e-01 0 0 0 0
4.95692754e+10 0 0 2.27003204e-01 3.60156194e-01 0 0 0 0
5.09900733e+10 0 0 2.34937939e-01 3.66676373e-01 0 0 0 0
5.24515955e+10 0 0 2.43158581e-01 3.73133480e-01 0 0 0 0
5.39550090e+10 0 0 2.51667024e-01 3.79513542e-01 0 0 0 0
5.55015147e+10 0 0 2.60464345e-01 3.85802092e-01 0 0 0 0
5.70923477e+10 0 0 2.69550743e-01 3.91984216e-01 0 0 0 0
5.87287785e+10 0 0 2.78925476e-01 3.98044609e-01 0 0 0 0
6.04121142e+10 0 0 2.88586806e-01 4.03967639e-01 0 0 0 0
6.21436991e+10 0 0 2.98531943e-01 4.09737418e-01 0 0 0 0
6.39249161e+10 0 0 3.08757001e-01 4.15337878e-01 0 0 0 0
6.57571880e+10 0 0 3.19256950e-01 4.20752860e-01 0 0 0 0
6.76419781e+10 0 0 3.30025589e-01 4.25966203e-01 0 0 0 0
6.95807917e+10 0 0 3.41055514e-01 4.30961846e-01 0 0 0 0
7.15751773e+10 0 0 3.52338104e-01 4.35723925e-01 0 0 0 0
7.36267276e+10 0 0 3.63863515e-01 4.40236890e-01 0 0 0 0
7.57370813e+10 0 0 3.75620683e-01 4.44485606e-01 0 0 0 0
7.79079239e+10 0 0 3.87597340e-01 4.48455473e-01 0 0 0 0
8.01409890e+10 0 0 3.99780043e-01 4.52132533e-01 0 0 0 0
8.24380601e+10 0 0 4.12154215e-01 4.55503587e-01 0 0 0 0
8.48009720e+10 0 0 4.24704195e-01 4.58556302e-01 0 0 0 0
8.72316116e+10 0 0 4.37413308e-01 4.61279315e-01 0 0 0 0
8.97319204e+10 0 0 4.50263937e-01 4.63662337e-01 0 0 0 0
9.23038953e+10 0 0 4.63237615e-01 4.65696241e-01 0 0 0 0
9.49495903e+10 0 0 4.76315126e-01 4.67373146e-01 0 0 0 0
9.76711186e+10 0 0 4.89476607e-01 4.68686494e-01 0 0 0 0
1.00470654e+11 0 0 5.02701674e-01 4.69631107e-01 0 0 0 0
1.03350431e+11 0 0 5.15969539e-01 4.70203240e-01 0 0 0 0
1.06312752e+11 0 0 5.29259144e-01 4.70400617e-01 0 0 0 0
1.09359981e+11 0 0 5.42549293e-01 4.70222451e-01 0 0 0 0
1.12494553e+11 0 0 5.55818783e-01 4.69669451e-01 0 0 0 0
1.15718970e+11 0 0 5.69046548e-01 4.68743819e-01 0 0 0 0
1.19035808e+11 0 0 5.82211781e-01 4.67449226e-01 0 0 0 0
1.22447717e+11 0 0 5.95294076e-01 4.65790777e-01 0 0 0 0
1.25957421e+11 0 0 6.08273540e-01 4.63774961e-01 0 0 0 0
1.29567722e+11 0 0 6.21130920e-01 4.61409592e-01 0 0 0 0
1.33281506e+11 0 0 6.33847709e-01 4.58703736e-01 0 0 0 0
1.37101737e+11 0 0 6.46406246e-01 4.55667625e-01 0 0 0 0
1.41031467e+11 0 0 6.58789803e-01 4.52312569e-01 0 0 0 0
1.45073834e+11 0 0 6.70982667e-01 4.48650854e-01 0 0 0 0
1.49232068e+11 0 0 6.82970204e-01 4.44695638e-01 0 0 0 0
1.53509488e+11 0 0 6.94738911e-01 4.40460841e-01 0 0 0 0
1.57909511e+11 0 0 7.06276460e-01 4.35961034e-01 0 0 0 0
1.62435652e+11 0 0 7.17571724e-01 4.31211328e-01 0 0 0 0
1.67091524e+11 0 0 7.28614798e-01 4.26227254e-01 0 0 0 0
1.71880848e+11 0 0 7.39396996e-01 4.21024662e-01 0 0 0 0
1.76807447e+11 0 0 7.49910855e-01 4.15619607e-01 0 0 0 0
1.81875257e+11 0 0 7.60150111e-01 4.10028245e-01 0 0 0 0
1.87088325e+11 0 0 7.70109675e-01 4.04266739e-01 0 0 0 0
1.92450814e+11 0 0 7.79785605e-01 3.98351163e-01 0 0 0 0
1.97967008e+11 0 0 7.89175054e-01 3.92297417e-01 0 0 0 0
2.03641312e+11 0 0 7.98276232e-01 3.86121148e-01 0 0 0 0
2.09478257e+11 0 0 8.07088348e-01 3.79837679e-01 0 0 0 0
2.15482506e+11 0 0 8.15611554e-01 3.73461945e-01 0 0 0 0
2.21658854e+11 0 0 8.23846883e-01 3.67008437e-01 0 0 0 0
2.28012234e+11 0 0 8.31796190e-01 3.60491154e-01 0 0 0 0
2.34547721e+11 0 0 8.39462081e-01 3.53923563e-01 0 0 0 0
2.41270533e+11 0 0 8.46847856e-01 3.47318564e-01 0 0 0 0
2.48186040e+11 0 0 8.53957437e-01 3.40688464e-01 0 0 0 0
2.55299765e+11 0 0 8.60795308e-01 3.34044958e-01 0 0 0 0
2.62617391e+11 0 0 8.67366452e-01 3.27399114e-01 0 0 0 0
2.70144760e+11 0 0 8.73676289e-01 3.20761367e-01 0 0 0 0
2.77887886e+11 0 0 8.79730617e-01 3.14141511e-01 0 0 0 0
2.85852952e+11 0 0 8.85535558e-01 3.07548708e-01 0 0 0 0
2.94046319e+11 0 0 8.91097504e-01 3.00991489e-01 0 0 0 0
3.02474532e+11 0 0 8.96423064e-01 2.94477764e-01 0 0 0 0
3.11144322e+11 0 0 9.01519023e-01 2.88014837e-01 0 0 0 0
3.20062613e+11 0 0 9.06392295e-01 2.81609420e-01 0 0 0 0
3.29236527e+11 0 0 9.11049881e-01 2.75267651e-01 0 0 0 0
3.38673393e+11 0 0 9.15498837e-01 2.68995116e-01 0 0 0 0
3.48380746e+11 0 0 9.19746237e-01 2.62796865e-01 0 0 0 0
3.58366340e+11 0 0 9.23799143e-01 2.56677441e-01 0 0 0 0
3.68638150e+11 0 0 9.27664576e-01 2.50640899e-01 0 0 0 0
3.79204379e+11 0 0 9.31349498e-01 2.44690831e-01 0 0 0 0
3.90073467e+11 0 0 9.34860781e-01 2.38830392e-01 0 0 0 0
4.01254094e+11 0 0 9.38205196e-01 2.33062320e-01 0 0 0 0
4.12755190e+11 0 0 9.41389394e-01 2.27388966e-01 0 0 0 0
4.24585941e+11 0 0 9.44419889e-01 2.21812312e-01 0 0 0 0
4.36755794e+11 0 0 9.47303051e-01 2.16333999e-01 0 0 0 0
4.49274471e+11 0 0 9.50045092e-01 2.10955348e-01 0 0 0 0
4.62151969e+11 0 0 9.52652059e-01 2.05677381e-01 0 0 0 0
4.75398574e+11 0 0 9.55129831e-01 2.00500846e-01 0 0 0 0
4.89024864e+11 0 0 9.57484109e-01 1.95426233e-01 0 0 0 0
5.03041722e+11 0 0 9.59720414e-01 1.90453798e-01 0 0 0 0
5.17460344e+11 0 0 9.61844088e-01 1.85583580e-01 0 0 0 0
5.32292246e+11 0 0 9.63860287e-01 1.80815420e-01 0 0 0 0
5.47549272e+11 0 0 9.65773989e-01 1.76148977e-01 0 0 0 0
5.63243608e+11 0 0 9.67589985e-01 1.71583744e-01 0 0 0 0
5.79387790e+11 0 0 9.69312887e-01 1.67119066e-01 0 0 0 0
5.95994710e+11 0 0 9.70947130e-01 1.62754151e-01 0 0 0 0
6.13077632e+11 0 0 9.72496972e-01 1.58488085e-01 0 0 0 0
6.30650199e+11 0 0 9.73966497e-01 1.54319847e-01 0 0 0 0
6.48726447e+11 0 0 9.75359621e-01 1.50248316e-01 0 0 0 0
6.67320813e+11 0 0 9.76680097e-01 1.46272287e-01 0 0 0 0
6.86448146e+11 0 0 9.77931512e-01 1.42390477e-01 0 0 0 0
7.06123723e+11 0 0 9.79117302e-01 1.38601539e-01 0 0 0 0
7.26363260e+11 0 0 9.80240746e-01 1.34904066e-01 0 0 0 0
7.47182919e+11 0 0 9.81304980e-01 1.31296605e-01 0 0 0 0
7.68599330e+11 0 0 9.82312995e-01 1.27777659e-01 0 0 0 0
7.90629597e+11 0 0 9.83267645e-01 1.24345697e-01 0 0 0 0
8.13291314e+11 0 0 9.84171652e-01 1.20999159e-01 0 0 0 0
8.36602582e+11 0 0 9.85027609e-01 1.17736464e-01 0 0 0 0
8.60582017e+11 0 0 9.85837987e-01 1.14556014e-01 0 0 0 0
8.85248772e+11 0 0 9.86605137e-01 1.11456198e-01 0 0 0 0
9.10622547e+11 0 0 9.87331300e-01 1.08435399e-01 0 0 0 0
9.36723608e+11 0 0 9.88018605e-01 1.05491994e-01 0 0 0 0
9.63572799e+11 0 0 9.88669076e-01 1.02624363e-01 0 0 0 0
9.91191566e+11 0 0 9.89284642e-01 9.98308880e-02 0 0 0 0
1.01960197e+12 0 0 9.89867130e-01 9.71099588e-02 0 0 0 0
1.04882669e+12 0 0 9.90418280e-01 9.44599737e-02 0 0 0 0
1.07888908e+12 0 0 9.90939744e-01 9.18793432e-02 0 0 0 0
1.10981314e+12 0 0 9.91433090e-01 8.93664916e-02 0 0 0 0
1.14162358e+12 0 0 9.91899805e-01 8.69198591e-02 0 0 0 0
1.17434579e+12 0 0 9.92341304e-01 8.45379037e-02 0 0 0 0
1.20800592e+12 0 0 9.92758925e-01 8.22191021e-02 0 0 0 0
1.24263084e+12 0 0 9.93153941e-01 7.99619519e-02 0 0 0 0
1.27824821e+12 0 0 9.93527558e-01 7.77649719e-02 0 0 0 0
1.31488648e+12 0 0 9.93880918e-01 7.56267036e-02 0 0 0 0
1.35257491e+12 0 0 9.94215106e-01 7.35457118e-02 0 0 0 0
1.39134360e+12 0 0 9.94531150e-01 7.15205853e-02 0 0 0 0
1.43122351e+12 0 0 9.94830023e-01 6.95499375e-02 0 0 0 0
1.47224649e+12 0 0 9.95112647e-01 6.76324071e-02 0 0 0 0
1.51444530e+12 0 0 9.95379898e-01 6.57666581e-02 0 0 0 0
1.55785366e+12 0 0 9.95632603e-01 6.39513802e-02 0 0 0 0
1.60250623e+12 0 0 9.95871547e-01 6.21852890e-02 0 0 0 0
1.64843866e+12 0 0 9.96097473e-01 6.04671264e-02 0 0 0 0
1.69568765e+12 0 0 9.96311084e-01 5.87956601e-02 0 0 0 0
1.74429094e+12 0 0 9.96513046e-01 5.71696840e-02 0 0 0 0
1.79428733e+12 0 0 9.96703990e-01 5.55880178e-02 0 0 0 0
1.84571676e+12 0 0 9.96884512e-01 5.40495073e-02 0 0 0 0
1.89862031e+12 0 0 9.97055179e-01 5.25530240e-02 0 0 0 0
1.95304023e+12 0 0 9.97216524e-01 5.10974648e-02 0 0 0 0
2.00901998e+12 0 0 9.97369054e-01 4.96817518e-02 0 0 0 0
2.06660427e+12 0 0 9.97513247e-01 4.83048323e-02 0 0 0 0
2.12583909e+12 0 0 9.97649558e-01 4.69656783e-02 0 0 0 0
2.18677175e+12 0 0 9.97778414e-01 4.56632860e-02 0 0 0 0
2.24945091e+12 0 0 9.97900222e-01 4.43966757e-02 0 0 0 0
2.31392665e+12 0 0 9.98015366e-01 4.31648916e-02 0 0 0 0
2.38025044e+12 0 0 9.98124208e-01 4.19670011e-02 0 0 0 0
2.44847526e+12 0 0 9.98227092e-01 4.08020943e-02 0 0 0 0
2.51865560e+12 0 0 9.98324344e-01 3.96692843e-02 0 0 0 0
2.59084751e+12 0 0 9.98416269e-01 3.85677059e-02 0 0 0 0
2.66510865e+12 0 0 9.98503160e-01 3.74965160e-02 0 0 0 0
2.74149833e+12 0 0 9.98585291e-01 3.64548926e-02 0 0 0 0
2.82007755e+12 0 0 9.98662921e-01 3.54420346e-02 0 0 0 0
2.90090908e+12 0 0 9.98736298e-01 3.44571615e-02 0 0 0 0
2.98405748e+12 0 0 9.98805653e-01 3.34995127e-02 0 0 0 0
3.06958914e+12 0 0 9.98871206e-01 3.25683473e-02 0 0 0 0
3.15757239e+12 0 0 9.98933165e-01 3.16629438e-02 0 0 0 0
3.24807750e+12 0 0 9.98991727e-01 3.07825991e-02 0 0 0 0
3.34117674e+12 0 0 9.99047077e-01 2.99266289e-02 0 0 0 0
3.43694447e+12 0 0 9.99099392e-01 2.90943665e-02 0 0 0 0
3.53545718e+12 0 0 9.99148838e-01 2.82851630e-02 0 0 0 0
3.63679355e+12 0 0 9.99195571e-01 2.74983865e-02 0 0 0 0
3.74103451e+12 0 0 9.99239740e-01 2.67334218e-02 0 0 0 0
3.84826331e+12 0 0 9.99281486e-01 2.59896704e-02 0 0 0 0
3.95856561e+12 0 0 9.99320941e-01 2.52665492e-02 0 0 0 0
4.07202948e+12 0 0 9.99358231e-01 2.45634911e-02 0 0 0 0
4.18874555e+12 0 0 9.99393475e-01 2.38799441e-02 0 0 0 0
4.30880704e+12 0 0 9.99426784e-01 2.32153708e-02 0 0 0 0
4.43230984e+12 0 0 9.99458266e-01 2.25692486e-02 0 0 0 0
4.55935258e+12 0 0 9.99488019e-01 2.19410686e-02 0 0 0 0
4.69003674e+12 0 0 9.99516139e-01 2.13303360e-02 0 0 0 0
4.82446668e+12 0 0 9.99542715e-01 2.07365692e-02 0 0 0 0
4.96274976e+12 0 0 9.99567832e-01 2.01592996e-02 0 0 0 0
5.10499644e+12 0 0 9.99591570e-01 1.95980714e-02 0 0 0 0
5.25132032e+12 0 0 9.99614005e-01 1.90524412e-02 0 0 0 0
5.40183826e+12 0 0 9.99635208e-01 1.85219776e-02 0 0 0 0
5.55667047e+12 0 0 9.99655247e-01 1.80062611e-02 0 0 0 0
5.71594062e+12 0 0 9.99674185e-01 1.75048834e-02 0 0 0 0
5.87977592e+12 0 0 9.99692083e-01 1.70174476e-02 0 0 0 0
6.04830720e+12 0 0 9.99708999e-01 1.65435674e-02 0 0 0 0
6.22166908e+12 0 0 9.99724985e-01 1.60828674e-02 0 0 0 0
6.40000000e+12 0 0 9.99740094e-01 1.56349822e-02 0 0 0 0
