! RC peaking equalizer  S21(f) = (1 + jwR_eqC_eq)/(eta + jwR_eqC_eq)
! corrected H_eq per EYE_TOOL_SPEC sec 3.4  (eta=163.254, R_eq=10097.6 ohm, C_eq=2.57317e-14 F)
# Hz S RI R 50
1.00000000e+00 0 0 6.12541271e-03 9.93874587e-12 0 0 0 0
1.00000000e+03 0 0 6.12541271e-03 9.93874587e-09 0 0 0 0
1.02866288e+03 0 0 6.12541271e-03 1.02236189e-08 0 0 0 0
1.05814731e+03 0 0 6.12541271e-03 1.05166572e-08 0 0 0 0
1.08847686e+03 0 0 6.12541271e-03 1.08180949e-08 0 0 0 0
1.11967573e+03 0 0 6.12541271e-03 1.11281726e-08 0 0 0 0
1.15176886e+03 0 0 6.12541271e-03 1.14471380e-08 0 0 0 0
1.18478186e+03 0 0 6.12541271e-03 1.17752459e-08 0 0 0 0
1.21874112e+03 0 0 6.12541271e-03 1.21127583e-08 0 0 0 0
1.25367374e+03 0 0 6.12541271e-03 1.24599447e-08 0 0 0 0
1.28960764e+03 0 0 6.12541271e-03 1.28170826e-08 0 0 0 0
1.32657150e+03 0 0 6.12541271e-03 1.31844570e-08 0 0 0 0
1.36459485e+03 0 0 6.12541271e-03 1.35623615e-08 0 0 0 0
1.40370807e+03 0 0 6.12541271e-03 1.39510978e-08 0 0 0 0
1.44394238e+03 0 0 6.12541271e-03 1.43509763e-08 0 0 0 0
1.48532992e+03 0 0 6.12541271e-03 1.47623166e-08 0 0 0 0
1.52790374e+03 0 0 6.12541271e-03 1.51854470e-08 0 0 0 0
1.57169786e+03 0 0 6.12541271e-03 1.56207056e-08 0 0 0 0
1.61674724e+03 0 0 6.12541271e-03 1.60684399e-08 0 0 0 0
1.66308786e+03 0 0 6.12541271e-03 1.65290076e-08 0 0 0 0
1.71075674e+03 0 0 6.12541271e-03 1.70027765e-08 0 0 0 0
1.75979195e+03 0 0 6.12541271e-03 1.74901250e-08 0 0 0 0
1.81023264e+03 0 0 6.12541271e-03 1.79914422e-08 0 0 0 0
1.86211912e+03 0 0 6.12541271e-03 1.85071287e-08 0 0 0 0
1.91549280e+03 0 0 6.12541271e-03 1.90375962e-08 0 0 0 0
1.97039634e+03 0 0 6.12541271e-03 1.95832685e-08 0 0 0 0
2.02687356e+03 0 0 6.12541271e-03 2.01445812e-08 0 0 0 0
2.08496958e+03 0 0 6.12541271e-03 2.07219828e-08 0 0 0 0
2.14473081e+03 0 0 6.12541271e-03 2.13159345e-08 0 0 0 0
2.20620496e+03 0 0 6.12541271e-03 2.19269104e-08 0 0 0 0
2.26944114e+03 0 0 6.12541271e-03 2.25553987e-08 0 0 0 0
2.33448984e+03 0 0 6.12541271e-03 2.32019013e-08 0 0 0 0
2.40140304e+03 0 0 6.12541271e-03 2.38669345e-08 0 0 0 0
2.47023415e+03 0 0 6.12541271e-03 2.45510295e-08 0 0 0 0
2.54103816e+03 0 0 6.12541271e-03 2.52547326e-08 0 0 0 0
2.61387162e+03 0 0 6.12541271e-03 2.59786058e-08 0 0 0 0
2.68879270e+03 0 0 6.12541271e-03 2.67232274e-08 0 0 0 0
2.76586123e+03 0 0 6.12541271e-03 2.74891919e-08 0 0 0 0
2.84513877e+03 0 0 6.12541271e-03 2.82771112e-08 0 0 0 0
2.92668862e+03 0 0 6.12541271e-03 2.90876145e-08 0 0 0 0
3.01057593e+03 0 0 6.12541271e-03 2.99213491e-08 0 0 0 0
3.09686770e+03 0 0 6.12541271e-03 3.07789810e-08 0 0 0 0
3.18563283e+03 0 0 6.12541271e-03 3.16611951e-08 0 0 0 0
3.27694223e+03 0 0 6.12541271e-03 3.25686960e-08 0 0 0 0
3.37086881e+03 0 0 6.12541271e-03 3.35022085e-08 0 0 0 0
3.46748760e+03 0 0 6.12541271e-03 3.44624781e-08 0 0 0 0
3.56687577e+03 0 0 6.12541271e-03 3.54502718e-08 0 0 0 0
3.66911268e+03 0 0 6.12541271e-03 3.64663785e-08 0 0 0 0
3.77428000e+03 0 0 6.12541271e-03 3.75116098e-08 0 0 0 0
3.88246172e+03 0 0 6.12541271e-03 3.85868004e-08 0 0 0 0
3.99374424e+03 0 0 6.12541271e-03 3.96928090e-08 0 0 0 0
4.10821643e+03 0 0 6.12541271e-03 4.08305191e-08 0 0 0 0
4.22596972e+03 0 0 6.12541271e-03 4.20008392e-08 0 0 0 0
4.34709817e+03 0 0 6.12541271e-03 4.32047040e-08 0 0 0 0
4.47169850e+03 0 0 6.12541271e-03 4.44430750e-08 0 0 0 0
4.59987024e+03 0 0 6.12541271e-03 4.57169413e-08 0 0 0 0
4.73171574e+03 0 0 6.12541271e-03 4.70273203e-08 0 0 0 0
4.86734032e+03 0 0 6.12541271e-03 4.83752585e-08 0 0 0 0
5.00685229e+03 0 0 6.12541271e-03 4.97618325e-08 0 0 0 0
5.15036307e+03 0 0 6.12541271e-03 5.11881497e-08 0 0 0 0
5.29798729e+03 0 0 6.12541271e-03 5.26553493e-08 0 0 0 0
5.44984283e+03 0 0 6.12541271e-03 5.41646030e-08 0 0 0 0
5.60605100e+03 0 0 6.12541271e-03 5.57171162e-08 0 0 0 0
5.76673654e+03 0 0 6.12541271e-03 5.73141290e-08 0 0 0 0
5.93202779e+03 0 0 6.12541271e-03 5.89569167e-08 0 0 0 0
6.10205676e+03 0 0 6.12541271e-03 6.06467915e-08 0 0 0 0
6.27695925e+03 0 0 6.12541271e-03 6.23851029e-08 0 0 0 0
6.45687495e+03 0 0 6.12541271e-03 6.41732393e-08 0 0 0 0
6.64194756e+03 0 0 6.12541271e-03 6.60126289e-08 0 0 0 0
6.83232487e+03 0 0 6.12541271e-03 6.79047406e-08 0 0 0 0
7.02815895e+03 0 0 6.12541271e-03 6.98510857e-08 0 0 0 0
7.22960619e+03 0 0 6.12541271e-03 7.18532187e-08 0 0 0 0
7.43682749e+03 0 0 6.12541271e-03 7.39127385e-08 0 0 0 0
7.64998835e+03 0 0 6.12541271e-03 7.60312901e-08 0 0 0 0
7.86925901e+03 0 0 6.12541271e-03 7.82105655e-08 0 0 0 0
8.09481460e+03 0 0 6.12541271e-03 8.04523052e-08 0 0 0 0
8.32683526e+03 0 0 6.12541271e-03 8.27582996e-08 0 0 0 0
8.56550630e+03 0 0 6.12541271e-03 8.51303904e-08 0 0 0 0
8.81101834e+03 0 0 6.12541271e-03 8.75704721e-08 0 0 0 0
9.06356746e+03 0 0 6.12541271e-03 9.00804937e-08 0 0 0 0
9.32335536e+03 0 0 6.12541271e-03 9.26624596e-08 0 0 0 0
9.59058953e+03 0 0 6.12541271e-03 9.53184321e-08 0 0 0 0
9.86548340e+03 0 0 6.12541271e-03 9.80505325e-08 0 0 0 0
1.01482565e+04 0 0 6.12541271e-03 1.00860943e-07 0 0 0 0
1.04391347e+04 0 0 6.12541271e-03 1.03751907e-07 0 0 0 0
1.07383504e+04 0 0 6.12541271e-03 1.06725735e-07 0 0 0 0
1.10461423e+04 0 0 6.12541271e-03 1.09784802e-07 0 0 0 0
1.13627565e+04 0 0 6.12541271e-03 1.12931550e-07 0 0 0 0
1.16884458e+04 0 0 6.12541271e-03 1.16168493e-07 0 0 0 0
1.20234703e+04 0 0 6.12541271e-03 1.19498216e-07 0 0 0 0
1.23680975e+04 0 0 6.12541271e-03 1.22923378e-07 0 0 0 0
1.27226028e+04 0 0 6.12541271e-03 1.26446716e-07 0 0 0 0
1.30872691e+04 0 0 6.12541271e-03 1.30071042e-07 0 0 0 0
1.34623879e+04 0 0 6.12541271e-03 1.33799252e-07 0 0 0 0
1.38482586e+04 0 0 6.12541271e-03 1.37634323e-07 0 0 0 0
1.42451895e+04 0 0 6.12541271e-03 1.41579319e-07 0 0 0 0
1.46534976e+04 0 0 6.12541271e-03 1.45637389e-07 0 0 0 0
1.50735090e+04 0 0 6.12541271e-03 1.49811775e-07 0 0 0 0
1.55055591e+04 0 0 6.12541271e-03 1.54105812e-07 0 0 0 0
1.59499930e+04 0 0 6.12541271e-03 1.58522927e-07 0 0 0 0
1.64071657e+04 0 0 6.12541271e-03 1.63066650e-07 0 0 0 0
1.68774422e+04 0 0 6.12541271e-03 1.67740609e-07 0 0 0 0
1.73611982e+04 0 0 6.12541271e-03 1.72548537e-07 0 0 0 0
1.78588201e+04 0 0 6.12541271e-03 1.77494275e-07 0 0 0 0
1.83707052e+04 0 0 6.12541271e-03 1.82581771e-07 0 0 0 0
1.88972625e+04 0 0 6.12541271e-03 1.87815089e-07 0 0 0 0
1.94389124e+04 0 0 6.12541271e-03 1.93198410e-07 0 0 0 0
1.99960875e+04 0 0 6.12541271e-03 1.98736032e-07 0 0 0 0
2.05692328e+04 0 0 6.12541271e-03 2.04432378e-07 0 0 0 0
2.11588062e+04 0 0 6.12541271e-03 2.10291998e-07 0 0 0 0
2.17652784e+04 0 0 6.12541271e-03 2.16319571e-07 0 0 0 0
2.23891339e+04 0 0 6.12541271e-03 2.22519912e-07 0 0 0 0
2.30308708e+04 0 0 6.12541271e-03 2.28897972e-07 0 0 0 0
2.36910018e+04 0 0 6.12541271e-03 2.35458846e-07 0 0 0 0
2.43700540e+04 0 0 6.12541271e-03 2.42207774e-07 0 0 0 0
2.50685698e+04 0 0 6.12541271e-03 2.49150145e-07 0 0 0 0
2.57871071e+04 0 0 6.12541271e-03 2.56291505e-07 0 0 0 0
2.65262398e+04 0 0 6.12541271e-03 2.63637556e-07 0 0 0 0
2.72865581e+04 0 0 6.12541271e-03 2.71194166e-07 0 0 0 0
2.80686693e+04 0 0 6.12541271e-03 2.78967371e-07 0 0 0 0
2.88731980e+04 0 0 6.12541271e-03 2.86963378e-07 0 0 0 0
2.97007869e+04 0 0 6.12541271e-03 2.95188573e-07 0 0 0 0
3.05520969e+04 0 0 6.12541271e-03 3.03649527e-07 0 0 0 0
3.14278078e+04 0 0 6.12541271e-03 3.12352995e-07 0 0 0 0
3.23286191e+04 0 0 6.12541271e-03 3.21305930e-07 0 0 0 0
3.32552503e+04 0 0 6.12541271e-03 3.30515482e-07 0 0 0 0
3.42084414e+04 0 0 6.12541271e-03 3.39989006e-07 0 0 0 0
3.51889537e+04 0 0 6.12541271e-03 3.49734068e-07 0 0 0 0
3.61975703e+04 0 0 6.12541271e-03 3.59758452e-07 0 0 0 0
3.72350967e+04 0 0 6.12541271e-03 3.70070164e-07 0 0 0 0
3.83023617e+04 0 0 6.12541271e-03 3.80677439e-07 0 0 0 0
3.94002175e+04 0 0 6.12541271e-03 3.91588749e-07 0 0 0 0
4.05295410e+04 0 0 6.12541271e-03 4.02812808e-07 0 0 0 0
4.16912342e+04 0 0 6.12541271e-03 4.14358582e-07 0 0 0 0
4.28862248e+04 0 0 6.12541271e-03 4.26235290e-07 0 0 0 0
4.41154673e+04 0 0 6.12541271e-03 4.38452419e-07 0 0 0 0
4.53799435e+04 0 0 6.12541271e-03 4.51019726e-07 0 0 0 0
4.66806631e+04 0 0 6.12541271e-03 4.63947248e-07 0 0 0 0
4.80186652e+04 0 0 6.12541271e-03 4.77245310e-07 0 0 0 0
4.93950182e+04 0 0 6.12541271e-03 4.90924533e-07 0 0 0 0
5.08108214e+04 0 0 6.12541271e-03 5.04995842e-07 0 0 0 0
5.22672056e+04 0 0 6.12541271e-03 5.19470474e-07 0 0 0 0
5.37653340e+04 0 0 6.12541271e-03 5.34359992e-07 0 0 0 0
5.53064031e+04 0 0 6.12541271e-03 5.49676286e-07 0 0 0 0
5.68916436e+04 0 0 6.12541271e-03 5.65431588e-07 0 0 0 0
5.85223217e+04 0 0 6.12541271e-03 5.81638483e-07 0 0 0 0
6.01997397e+04 0 0 6.12541271e-03 5.98309915e-07 0 0 0 0
6.19252374e+04 0 0 6.12541271e-03 6.15459197e-07 0 0 0 0
6.37001927e+04 0 0 6.12541271e-03 6.33100027e-07 0 0 0 0
6.55260234e+04 0 0 6.12541271e-03 6.51246494e-07 0 0 0 0
6.74041876e+04 0 0 6.12541271e-03 6.69913091e-07 0 0 0 0
6.93361854e+04 0 0 6.12541271e-03 6.89114727e-07 0 0 0 0
7.13235599e+04 0 0 6.12541271e-03 7.08866736e-07 0 0 0 0
7.33678982e+04 0 0 6.12541271e-03 7.29184895e-07 0 0 0 0
7.54708331e+04 0 0 6.12541271e-03 7.50085431e-07 0 0 0 0
7.76340442e+04 0 0 6.12541271e-03 7.71585036e-07 0 0 0 0
7.98592591e+04 0 0 6.12541271e-03 7.93700882e-07 0 0 0 0
8.21482551e+04 0 0 6.12541271e-03 8.16450631e-07 0 0 0 0
8.45028602e+04 0 0 6.12541271e-03 8.39852454e-07 0 0 0 0
8.69249552e+04 0 0 6.12541271e-03 8.63925040e-07 0 0 0 0
8.94164743e+04 0 0 6.12541271e-03 8.88687615e-07 0 0 0 0
9.19794076e+04 0 0 6.12541271e-03 9.14159957e-07 0 0 0 0
9.46158019e+04 0 0 6.12541271e-03 9.40362410e-07 0 0 0 0
9.73277628e+04 0 0 6.12541271e-03 9.67315901e-07 0 0 0 0
1.00117456e+05 0 0 6.12541271e-03 9.95041956e-07 0 0 0 0
1.02987110e+05 0 0 6.12541271e-03 1.02356272e-06 0 0 0 0
1.05939017e+05 0 0 6.12541271e-03 1.05290097e-06 0 0 0 0
1.08975534e+05 0 0 6.12541271e-03 1.08308014e-06 0 0 0 0
1.12099086e+05 0 0 6.12541271e-03 1.11412433e-06 0 0 0 0
1.15312168e+05 0 0 6.12541271e-03 1.14605834e-06 0 0 0 0
1.18617347e+05 0 0 6.12541271e-03 1.17890766e-06 0 0 0 0
1.22017261e+05 0 0 6.12541271e-03 1.21269855e-06 0 0 0 0
1.25514626e+05 0 0 6.12541271e-03 1.24745797e-06 0 0 0 0
1.29112236e+05 0 0 6.12541271e-03 1.28321371e-06 0 0 0 0
1.32812964e+05 0 0 6.12541271e-03 1.31999430e-06 0 0 0 0
1.36619766e+05 0 0 6.12541271e-03 1.35782913e-06 0 0 0 0
1.40535681e+05 0 0 6.12541271e-03 1.39674842e-06 0 0 0 0
1.44563838e+05 0 0 6.12541271e-03 1.43678325e-06 0 0 0 0
1.48707453e+05 0 0 6.12541271e-03 1.47796558e-06 0 0 0 0
1.52969836e+05 0 0 6.12541271e-03 1.52032833e-06 0 0 0 0
1.57354391e+05 0 0 6.12541271e-03 1.56390531e-06 0 0 0 0
1.61864621e+05 0 0 6.12541271e-03 1.60873133e-06 0 0 0 0
1.66504126e+05 0 0 6.12541271e-03 1.65484220e-06 0 0 0 0
1.71276613e+05 0 0 6.12541271e-03 1.70227473e-06 0 0 0 0
1.76185893e+05 0 0 6.12541271e-03 1.75106682e-06 0 0 0 0
1.81235888e+05 0 0 6.12541271e-03 1.80125743e-06 0 0 0 0
1.86430629e+05 0 0 6.12541271e-03 1.85288665e-06 0 0 0 0
1.91774267e+05 0 0 6.12541271e-03 1.90599571e-06 0 0 0 0
1.97271069e+05 0 0 6.12541271e-03 1.96062702e-06 0 0 0 0
2.02925425e+05 0 0 6.12541271e-03 2.01682423e-06 0 0 0 0
2.08741851e+05 0 0 6.12541271e-03 2.07463221e-06 0 0 0 0
2.14724993e+05 0 0 6.12541271e-03 2.13409714e-06 0 0 0 0
2.20879629e+05 0 0 6.12541271e-03 2.19526650e-06 0 0 0 0
2.27210674e+05 0 0 6.12541271e-03 2.25818915e-06 0 0 0 0
2.33723185e+05 0 0 6.12541271e-03 2.32291534e-06 0 0 0 0
2.40422364e+05 0 0 6.12541271e-03 2.38949677e-06 0 0 0 0
2.47313560e+05 0 0 6.12541271e-03 2.45798662e-06 0 0 0 0
2.54402277e+05 0 0 6.12541271e-03 2.52843959e-06 0 0 0 0
2.61694178e+05 0 0 6.12541272e-03 2.60091193e-06 0 0 0 0
2.69195086e+05 0 0 6.12541272e-03 2.67546155e-06 0 0 0 0
2.76910991e+05 0 0 6.12541272e-03 2.75214797e-06 0 0 0 0
2.84848056e+05 0 0 6.12541272e-03 2.83103244e-06 0 0 0 0
2.93012620e+05 0 0 6.12541272e-03 2.91217797e-06 0 0 0 0
3.01411205e+05 0 0 6.12541272e-03 2.99564937e-06 0 0 0 0
3.10050516e+05 0 0 6.12541272e-03 3.08151329e-06 0 0 0 0
3.18937456e+05 0 0 6.12541272e-03 3.16983832e-06 0 0 0 0
3.28079120e+05 0 0 6.12541272e-03 3.26069500e-06 0 0 0 0
3.37482811e+05 0 0 6.12541272e-03 3.35415590e-06 0 0 0 0
3.47156039e+05 0 0 6.12541272e-03 3.45029565e-06 0 0 0 0
3.57106529e+05 0 0 6.12541272e-03 3.54919104e-06 0 0 0 0
3.67342229e+05 0 0 6.12541272e-03 3.65092106e-06 0 0 0 0
3.77871313e+05 0 0 6.12541272e-03 3.75556696e-06 0 0 0 0
3.88702192e+05 0 0 6.12541272e-03 3.86321230e-06 0 0 0 0
3.99843514e+05 0 0 6.12541272e-03 3.97394308e-06 0 0 0 0
4.11304179e+05 0 0 6.12541273e-03 4.08784771e-06 0 0 0 0
4.23093339e+05 0 0 6.12541273e-03 4.20501718e-06 0 0 0 0
4.35220411e+05 0 0 6.12541273e-03 4.32554506e-06 0 0 0 0
4.47695079e+05 0 0 6.12541273e-03 4.44952762e-06 0 0 0 0
4.60527307e+05 0 0 6.12541273e-03 4.57706388e-06 0 0 0 0
4.73727344e+05 0 0 6.12541273e-03 4.70825569e-06 0 0 0 0
4.87305732e+05 0 0 6.12541273e-03 4.84320783e-06 0 0 0 0
5.01273315e+05 0 0 6.12541273e-03 4.98202809e-06 0 0 0 0
5.15641250e+05 0 0 6.12541273e-03 5.12482734e-06 0 0 0 0
5.30421011e+05 0 0 6.12541274e-03 5.27171963e-06 0 0 0 0
5.45624402e+05 0 0 6.12541274e-03 5.42282227e-06 0 0 0 0
5.61263566e+05 0 0 6.12541274e-03 5.57825595e-06 0 0 0 0
5.77350994e+05 0 0 6.12541274e-03 5.73814480e-06 0 0 0 0
5.93899533e+05 0 0 6.12541274e-03 5.90261653e-06 0 0 0 0
6.10922401e+05 0 0 6.12541275e-03 6.07180250e-06 0 0 0 0
6.28433194e+05 0 0 6.12541275e-03 6.24583781e-06 0 0 0 0
6.46445896e+05 0 0 6.12541275e-03 6.42486148e-06 0 0 0 0
6.64974894e+05 0 0 6.12541275e-03 6.60901649e-06 0 0 0 0
6.84034987e+05 0 0 6.12541275e-03 6.79844990e-06 0 0 0 0
7.03641396e+05 0 0 6.12541276e-03 6.99331302e-06 0 0 0 0
7.23809782e+05 0 0 6.12541276e-03 7.19376148e-06 0 0 0 0
7.44556251e+05 0 0 6.12541276e-03 7.39995537e-06 0 0 0 0
7.65897374e+05 0 0 6.12541277e-03 7.61205937e-06 0 0 0 0
7.87850195e+05 0 0 6.12541277e-03 7.83024287e-06 0 0 0 0
8.10432247e+05 0 0 6.12541277e-03 8.05468015e-06 0 0 0 0
8.33661565e+05 0 0 6.12541278e-03 8.28555044e-06 0 0 0 0
8.57556703e+05 0 0 6.12541278e-03 8.52303814e-06 0 0 0 0
8.82136744e+05 0 0 6.12541279e-03 8.76733292e-06 0 0 0 0
9.07421319e+05 0 0 6.12541279e-03 9.01862989e-06 0 0 0 0
9.33430623e+05 0 0 6.12541280e-03 9.27712975e-06 0 0 0 0
9.60185429e+05 0 0 6.12541280e-03 9.54303896e-06 0 0 0 0
9.87707104e+05 0 0 6.12541281e-03 9.81656990e-06 0 0 0 0
1.01601763e+06 0 0 6.12541281e-03 1.00979410e-05 0 0 0 0
1.04513962e+06 0 0 6.12541282e-03 1.03873770e-05 0 0 0 0
1.07509632e+06 0 0 6.12541282e-03 1.06851091e-05 0 0 0 0
1.10591167e+06 0 0 6.12541283e-03 1.09913751e-05 0 0 0 0
1.13761028e+06 0 0 6.12541284e-03 1.13064195e-05 0 0 0 0
1.17021746e+06 0 0 6.12541284e-03 1.16304940e-05 0 0 0 0
1.20375926e+06 0 0 6.12541285e-03 1.19638574e-05 0 0 0 0
1.23826246e+06 0 0 6.12541286e-03 1.23067759e-05 0 0 0 0
1.27375463e+06 0 0 6.12541287e-03 1.26595235e-05 0 0 0 0
1.31026410e+06 0 0 6.12541288e-03 1.30223819e-05 0 0 0 0
1.34782003e+06 0 0 6.12541289e-03 1.33956408e-05 0 0 0 0
1.38645243e+06 0 0 6.12541290e-03 1.37795984e-05 0 0 0 0
1.42619214e+06 0 0 6.12541291e-03 1.41745613e-05 0 0 0 0
1.46707091e+06 0 0 6.12541292e-03 1.45808449e-05 0 0 0 0
1.50912138e+06 0 0 6.12541293e-03 1.49987739e-05 0 0 0 0
1.55237714e+06 0 0 6.12541295e-03 1.54286819e-05 0 0 0 0
1.59687273e+06 0 0 6.12541296e-03 1.58709122e-05 0 0 0 0
1.64264369e+06 0 0 6.12541298e-03 1.63258182e-05 0 0 0 0
1.68972658e+06 0 0 6.12541299e-03 1.67937631e-05 0 0 0 0
1.73815901e+06 0 0 6.12541301e-03 1.72751207e-05 0 0 0 0
1.78797964e+06 0 0 6.12541303e-03 1.77702753e-05 0 0 0 0
1.83922828e+06 0 0 6.12541304e-03 1.82796225e-05 0 0 0 0
1.89194585e+06 0 0 6.12541306e-03 1.88035690e-05 0 0 0 0
1.94617446e+06 0 0 6.12541308e-03 1.93425334e-05 0 0 0 0
2.00195741e+06 0 0 6.12541311e-03 1.98969460e-05 0 0 0 0
2.05933927e+06 0 0 6.12541313e-03 2.04672497e-05 0 0 0 0
2.11836585e+06 0 0 6.12541315e-03 2.10538999e-05 0 0 0 0
2.17908431e+06 0 0 6.12541318e-03 2.16573652e-05 0 0 0 0
2.24154313e+06 0 0 6.12541321e-03 2.22781275e-05 0 0 0 0
2.30579220e+06 0 0 6.12541324e-03 2.29166827e-05 0 0 0 0
2.37188284e+06 0 0 6.12541327e-03 2.35735407e-05 0 0 0 0
2.43986782e+06 0 0 6.12541330e-03 2.42492262e-05 0 0 0 0
2.50980145e+06 0 0 6.12541333e-03 2.49442787e-05 0 0 0 0
2.58173957e+06 0 0 6.12541337e-03 2.56592535e-05 0 0 0 0
2.65573965e+06 0 0 6.12541341e-03 2.63947215e-05 0 0 0 0
2.73186079e+06 0 0 6.12541345e-03 2.71512701e-05 0 0 0 0
2.81016377e+06 0 0 6.12541349e-03 2.79295036e-05 0 0 0 0
2.89071114e+06 0 0 6.12541354e-03 2.87300434e-05 0 0 0 0
2.97356724e+06 0 0 6.12541359e-03 2.95535291e-05 0 0 0 0
3.05879822e+06 0 0 6.12541364e-03 3.04006182e-05 0 0 0 0
3.14647218e+06 0 0 6.12541369e-03 3.12719873e-05 0 0 0 0
3.23665911e+06 0 0 6.12541375e-03 3.21683324e-05 0 0 0 0
3.32943107e+06 0 0 6.12541381e-03 3.30903693e-05 0 0 0 0
3.42486214e+06 0 0 6.12541387e-03 3.40388344e-05 0 0 0 0
3.52302854e+06 0 0 6.12541394e-03 3.50144853e-05 0 0 0 0
3.62400866e+06 0 0 6.12541401e-03 3.60181011e-05 0 0 0 0
3.72788317e+06 0 0 6.12541409e-03 3.70504834e-05 0 0 0 0
3.83473502e+06 0 0 6.12541417e-03 3.81124568e-05 0 0 0 0
3.94464955e+06 0 0 6.12541425e-03 3.92048694e-05 0 0 0 0
4.05771455e+06 0 0 6.12541434e-03 4.03285937e-05 0 0 0 0
4.17402032e+06 0 0 6.12541444e-03 4.14845271e-05 0 0 0 0
4.29365974e+06 0 0 6.12541454e-03 4.26735929e-05 0 0 0 0
4.41672837e+06 0 0 6.12541465e-03 4.38967408e-05 0 0 0 0
4.54332451e+06 0 0 6.12541476e-03 4.51549476e-05 0 0 0 0
4.67354925e+06 0 0 6.12541488e-03 4.64492182e-05 0 0 0 0
4.80750661e+06 0 0 6.12541501e-03 4.77805864e-05 0 0 0 0
4.94530357e+06 0 0 6.12541514e-03 4.91501154e-05 0 0 0 0
5.08705019e+06 0 0 6.12541528e-03 5.05588990e-05 0 0 0 0
5.23285968e+06 0 0 6.12541543e-03 5.20080624e-05 0 0 0 0
5.38284848e+06 0 0 6.12541559e-03 5.34987630e-05 0 0 0 0
5.53713640e+06 0 0 6.12541576e-03 5.50321913e-05 0 0 0 0
5.69584665e+06 0 0 6.12541593e-03 5.66095722e-05 0 0 0 0
5.85910599e+06 0 0 6.12541612e-03 5.82321653e-05 0 0 0 0
6.02704481e+06 0 0 6.12541632e-03 5.99012665e-05 0 0 0 0
6.19979725e+06 0 0 6.12541653e-03 6.16182090e-05 0 0 0 0
6.37750126e+06 0 0 6.12541675e-03 6.33843641e-05 0 0 0 0
6.56029878e+06 0 0 6.12541699e-03 6.52011422e-05 0 0 0 0
6.74833581e+06 0 0 6.12541723e-03 6.70699944e-05 0 0 0 0
6.94176252e+06 0 0 6.12541750e-03 6.89924132e-05 0 0 0 0
7.14073339e+06 0 0 6.12541778e-03 7.09699341e-05 0 0 0 0
7.34540734e+06 0 0 6.12541807e-03 7.30041365e-05 0 0 0 0
7.55594783e+06 0 0 6.12541838e-03 7.50966449e-05 0 0 0 0
7.77252302e+06 0 0 6.12541871e-03 7.72491307e-05 0 0 0 0
7.99530588e+06 0 0 6.12541906e-03 7.94633128e-05 0 0 0 0
8.22447434e+06 0 0 6.12541943e-03 8.17409598e-05 0 0 0 0
8.46021142e+06 0 0 6.12541982e-03 8.40838907e-05 0 0 0 0
8.70270540e+06 0 0 6.12542024e-03 8.64939768e-05 0 0 0 0
8.95214996e+06 0 0 6.12542067e-03 8.89731428e-05 0 0 0 0
9.20874432e+06 0 0 6.12542114e-03 9.15233688e-05 0 0 0 0
9.47269341e+06 0 0 6.12542163e-03 9.41466917e-05 0 0 0 0
9.74420804e+06 0 0 6.12542215e-03 9.68452065e-05 0 0 0 0
1.00235051e+07 0 0 6.12542269e-03 9.96210685e-05 0 0 0 0
1.03108075e+07 0 0 6.12542327e-03 1.02476495e-04 0 0 0 0
1.06063449e+07 0 0 6.12542389e-03 1.05413766e-04 0 0 0 0
1.09103533e+07 0 0 6.12542454e-03 1.08435227e-04 0 0 0 0
1.12230754e+07 0 0 6.12542523e-03 1.11543293e-04 0 0 0 0
1.15447610e+07 0 0 6.12542595e-03 1.14740444e-04 0 0 0 0
1.18756670e+07 0 0 6.12542673e-03 1.18029235e-04 0 0 0 0
1.22160578e+07 0 0 6.12542754e-03 1.21412292e-04 0 0 0 0
1.25662051e+07 0 0 6.12542840e-03 1.24892317e-04 0 0 0 0
1.29263887e+07 0 0 6.12542932e-03 1.28472090e-04 0 0 0 0
1.32968962e+07 0 0 6.12543028e-03 1.32154469e-04 0 0 0 0
1.36780234e+07 0 0 6.12543130e-03 1.35942396e-04 0 0 0 0
1.40700749e+07 0 0 6.12543238e-03 1.39838896e-04 0 0 0 0
1.44733637e+07 0 0 6.12543353e-03 1.43847081e-04 0 0 0 0
1.48882119e+07 0 0 6.12543474e-03 1.47970152e-04 0 0 0 0
1.53149509e+07 0 0 6.12543602e-03 1.52211401e-04 0 0 0 0
1.57539214e+07 0 0 6.12543738e-03 1.56574218e-04 0 0 0 0
1.62054741e+07 0 0 6.12543881e-03 1.61062085e-04 0 0 0 0
1.66699696e+07 0 0 6.12544033e-03 1.65678587e-04 0 0 0 0
1.71477788e+07 0 0 6.12544193e-03 1.70427411e-04 0 0 0 0
1.76392835e+07 0 0 6.12544363e-03 1.75312350e-04 0 0 0 0
1.81448761e+07 0 0 6.12544543e-03 1.80337306e-04 0 0 0 0
1.86649604e+07 0 0 6.12544733e-03 1.85506292e-04 0 0 0 0
1.91999518e+07 0 0 6.12544935e-03 1.90823435e-04 0 0 0 0
1.97502776e+07 0 0 6.12545148e-03 1.96292983e-04 0 0 0 0
2.03163774e+07 0 0 6.12545373e-03 2.01919304e-04 0 0 0 0
2.08987032e+07 0 0 6.12545612e-03 2.07706891e-04 0 0 0 0
2.14977201e+07 0 0 6.12545864e-03 2.13660367e-04 0 0 0 0
2.21139066e+07 0 0 6.12546131e-03 2.19784487e-04 0 0 0 0
2.27477547e+07 0 0 6.12546414e-03 2.26084142e-04 0 0 0 0
2.33997708e+07 0 0 6.12546713e-03 2.32564362e-04 0 0 0 0
2.40704755e+07 0 0 6.12547029e-03 2.39230325e-04 0 0 0 0
2.47604045e+07 0 0 6.12547364e-03 2.46087353e-04 0 0 0 0
2.54701089e+07 0 0 6.12547718e-03 2.53140923e-04 0 0 0 0
2.62001555e+07 0 0 6.12548093e-03 2.60396669e-04 0 0 0 0
2.69511272e+07 0 0 6.12548490e-03 2.67860385e-04 0 0 0 0
2.77236240e+07 0 0 6.12548910e-03 2.75538033e-04 0 0 0 0
2.85182628e+07 0 0 6.12549354e-03 2.83435744e-04 0 0 0 0
2.93356782e+07 0 0 6.12549824e-03 2.91559826e-04 0 0 0 0
3.01765231e+07 0 0 6.12550321e-03 2.99916767e-04 0 0 0 0
3.10414690e+07 0 0 6.12550848e-03 3.08513242e-04 0 0 0 0
3.19312068e+07 0 0 6.12551404e-03 3.17356117e-04 0 0 0 0
3.28464470e+07 0 0 6.12551994e-03 3.26452454e-04 0 0 0 0
3.37879206e+07 0 0 6.12552617e-03 3.35809518e-04 0 0 0 0
3.47563795e+07 0 0 6.12553277e-03 3.45434782e-04 0 0 0 0
3.57525973e+07 0 0 6.12553975e-03 3.55335934e-04 0 0 0 0
3.67773696e+07 0 0 6.12554714e-03 3.65520880e-04 0 0 0 0
3.78315147e+07 0 0 6.12555495e-03 3.75997757e-04 0 0 0 0
3.89158747e+07 0 0 6.12556323e-03 3.86774930e-04 0 0 0 0
4.00313156e+07 0 0 6.12557198e-03 3.97861009e-04 0 0 0 0
4.11787282e+07 0 0 6.12558124e-03 4.09264845e-04 0 0 0 0
4.23590289e+07 0 0 6.12559104e-03 4.20995548e-04 0 0 0 0
4.35731605e+07 0 0 6.12560141e-03 4.33062487e-04 0 0 0 0
4.48220925e+07 0 0 6.12561238e-03 4.45475298e-04 0 0 0 0
4.61068226e+07 0 0 6.12562399e-03 4.58243895e-04 0 0 0 0
4.74283767e+07 0 0 6.12563628e-03 4.71378477e-04 0 0 0 0
4.87878103e+07 0 0 6.12564928e-03 4.84889533e-04 0 0 0 0
5.01862092e+07 0 0 6.12566303e-03 4.98787854e-04 0 0 0 0
5.16246903e+07 0 0 6.12567759e-03 5.13084541e-04 0 0 0 0
5.31044024e+07 0 0 6.12569299e-03 5.27791011e-04 0 0 0 0
5.46265272e+07 0 0 6.12570929e-03 5.42919010e-04 0 0 0 0
5.61922806e+07 0 0 6.12572653e-03 5.58480620e-04 0 0 0 0
5.78029129e+07 0 0 6.12574478e-03 5.74488270e-04 0 0 0 0
5.94597106e+07 0 0 6.12576409e-03 5.90954744e-04 0 0 0 0
6.11639968e+07 0 0 6.12578452e-03 6.07893194e-04 0 0 0 0
6.29171328e+07 0 0 6.12580614e-03 6.25317147e-04 0 0 0 0
6.47205188e+07 0 0 6.12582902e-03 6.43240519e-04 0 0 0 0
6.65755949e+07 0 0 6.12585322e-03 6.61677626e-04 0 0 0 0
6.84838429e+07 0 0 6.12587884e-03 6.80643192e-04 0 0 0 0
7.04467867e+07 0 0 6.12590594e-03 7.00152364e-04 0 0 0 0
7.24659942e+07 0 0 6.12593462e-03 7.20220723e-04 0 0 0 0
7.45430780e+07 0 0 6.12596497e-03 7.40864297e-04 0 0 0 0
7.66796969e+07 0 0 6.12599708e-03 7.62099573e-04 0 0 0 0
7.88775575e+07 0 0 6.12603106e-03 7.83943511e-04 0 0 0 0
8.11384151e+07 0 0 6.12606702e-03 8.06413557e-04 0 0 0 0
8.34640753e+07 0 0 6.12610507e-03 8.29527657e-04 0 0 0 0
8.58563957e+07 0 0 6.12614532e-03 8.53304270e-04 0 0 0 0
8.83172869e+07 0 0 6.12618792e-03 8.77762386e-04 0 0 0 0
9.08487143e+07 0 0 6.12623300e-03 9.02921539e-04 0 0 0 0
9.34526996e+07 0 0 6.12628070e-03 9.28801822e-04 0 0 0 0
9.61313227e+07 0 0 6.12633117e-03 9.55423904e-04 0 0 0 0
9.88867228e+07 0 0 6.12638458e-03 9.82809047e-04 0 0 0 0
1.01721101e+08 0 0 6.12644109e-03 1.01097912e-03 0 0 0 0
1.04636720e+08 0 0 6.12650088e-03 1.03995663e-03 0 0 0 0
1.07635909e+08 0 0 6.12656416e-03 1.06976471e-03 0 0 0 0
1.10721064e+08 0 0 6.12663111e-03 1.10042717e-03 0 0 0 0
1.13894648e+08 0 0 6.12670196e-03 1.13196849e-03 0 0 0 0
1.17159196e+08 0 0 6.12677693e-03 1.16441388e-03 0 0 0 0
1.20517315e+08 0 0 6.12685625e-03 1.19778923e-03 0 0 0 0
1.23971688e+08 0 0 6.12694019e-03 1.23212121e-03 0 0 0 0
1.27525073e+08 0 0 6.12702901e-03 1.26743723e-03 0 0 0 0
1.31180308e+08 0 0 6.12712299e-03 1.30376550e-03 0 0 0 0
1.34940313e+08 0 0 6.12722244e-03 1.34113504e-03 0 0 0 0
1.38808090e+08 0 0 6.12732767e-03 1.37957568e-03 0 0 0 0
1.42786729e+08 0 0 6.12743902e-03 1.41911812e-03 0 0 0 0
1.46879408e+08 0 0 6.12755685e-03 1.45979396e-03 0 0 0 0
1.51089394e+08 0 0 6.12768152e-03 1.50163566e-03 0 0 0 0
1.55420050e+08 0 0 6.12781345e-03 1.54467665e-03 0 0 0 0
1.59874836e+08 0 0 6.12795304e-03 1.58895130e-03 0 0 0 0
1.64457308e+08 0 0 6.12810075e-03 1.63449497e-03 0 0 0 0
1.69171128e+08 0 0 6.12825706e-03 1.68134403e-03 0 0 0 0
1.74020058e+08 0 0 6.12842245e-03 1.72953590e-03 0 0 0 0
1.79007974e+08 0 0 6.12859746e-03 1.77910906e-03 0 0 0 0
1.84138857e+08 0 0 6.12878264e-03 1.83010310e-03 0 0 0 0
1.89416806e+08 0 0 6.12897859e-03 1.88255874e-03 0 0 0 0
1.94846036e+08 0 0 6.12918594e-03 1.93651789e-03 0 0 0 0
2.00430884e+08 0 0 6.12940534e-03 1.99202362e-03 0 0 0 0
2.06175809e+08 0 0 6.12963750e-03 2.04912026e-03 0 0 0 0
2.12085401e+08 0 0 6.12988316e-03 2.10785342e-03 0 0 0 0
2.18164378e+08 0 0 6.13014310e-03 2.16826999e-03 0 0 0 0
2.24417597e+08 0 0 6.13041816e-03 2.23041823e-03 0 0 0 0
2.30850050e+08 0 0 6.13070921e-03 2.29434776e-03 0 0 0 0
2.37466876e+08 0 0 6.13101719e-03 2.36010963e-03 0 0 0 0
2.44273360e+08 0 0 6.13134307e-03 2.42775636e-03 0 0 0 0
2.51274937e+08 0 0 6.13168790e-03 2.49734197e-03 0 0 0 0
2.58477199e+08 0 0 6.13205279e-03 2.56892203e-03 0 0 0 0
2.65885899e+08 0 0 6.13243889e-03 2.64255369e-03 0 0 0 0
2.73506953e+08 0 0 6.13284744e-03 2.71829576e-03 0 0 0 0
2.81346449e+08 0 0 6.13327974e-03 2.79620872e-03 0 0 0 0
2.89410647e+08 0 0 6.13373719e-03 2.87635478e-03 0 0 0 0
2.97705988e+08 0 0 6.13422123e-03 2.95879794e-03 0 0 0 0
3.06239098e+08 0 0 6.13473341e-03 3.04360402e-03 0 0 0 0
3.15016791e+08 0 0 6.13527538e-03 3.13084076e-03 0 0 0 0
3.24046078e+08 0 0 6.13584886e-03 3.22057780e-03 0 0 0 0
3.33334170e+08 0 0 6.13645569e-03 3.31288679e-03 0 0 0 0
3.42888486e+08 0 0 6.13709780e-03 3.40784145e-03 0 0 0 0
3.52716655e+08 0 0 6.13777725e-03 3.50551759e-03 0 0 0 0
3.62826529e+08 0 0 6.13849621e-03 3.60599320e-03 0 0 0 0
3.73226180e+08 0 0 6.13925697e-03 3.70934849e-03 0 0 0 0
3.83923916e+08 0 0 6.14006196e-03 3.81566599e-03 0 0 0 0
3.94928279e+08 0 0 6.14091376e-03 3.92503059e-03 0 0 0 0
4.06248059e+08 0 0 6.14181509e-03 4.03752959e-03 0 0 0 0
4.17892297e+08 0 0 6.14276883e-03 4.15325281e-03 0 0 0 0
4.29870291e+08 0 0 6.14377803e-03 4.27229264e-03 0 0 0 0
4.42191610e+08 0 0 6.14484590e-03 4.39474411e-03 0 0 0 0
4.54866093e+08 0 0 6.14597586e-03 4.52070497e-03 0 0 0 0
4.67903863e+08 0 0 6.14717153e-03 4.65027578e-03 0 0 0 0
4.81315333e+08 0 0 6.14843672e-03 4.78355996e-03 0 0 0 0
4.95111214e+08 0 0 6.14977547e-03 4.92066392e-03 0 0 0 0
5.09302525e+08 0 0 6.15119206e-03 5.06169708e-03 0 0 0 0
5.23900600e+08 0 0 6.15269102e-03 5.20677202e-03 0 0 0 0
5.38917098e+08 0 0 6.15427713e-03 5.35600453e-03 0 0 0 0
5.54364011e+08 0 0 6.15595547e-03 5.50951371e-03 0 0 0 0
5.70253678e+08 0 0 6.15773139e-03 5.66742209e-03 0 0 0 0
5.86598788e+08 0 0 6.15961057e-03 5.82985568e-03 0 0 0 0
6.03412396e+08 0 0 6.16159901e-03 5.99694410e-03 0 0 0 0
6.20707930e+08 0 0 6.16370307e-03 6.16882071e-03 0 0 0 0
6.38499204e+08 0 0 6.16592946e-03 6.34562263e-03 0 0 0 0
6.56800427e+08 0 0 6.16828530e-03 6.52749094e-03 0 0 0 0
6.75626216e+08 0 0 6.17077811e-03 6.71457076e-03 0 0 0 0
6.94991606e+08 0 0 6.17341586e-03 6.90701133e-03 0 0 0 0
7.14912063e+08 0 0 6.17620697e-03 7.10496618e-03 0 0 0 0
7.35403498e+08 0 0 6.17916036e-03 7.30859322e-03 0 0 0 0
7.56482277e+08 0 0 6.18228546e-03 7.51805488e-03 0 0 0 0
7.78165234e+08 0 0 6.18559226e-03 7.73351821e-03 0 0 0 0
8.00469687e+08 0 0 6.18909131e-03 7.95515507e-03 0 0 0 0
8.23413450e+08 0 0 6.19279380e-03 8.18314220e-03 0 0 0 0
8.47014847e+08 0 0 6.19671155e-03 8.41766140e-03 0 0 0 0
8.71292728e+08 0 0 6.20085707e-03 8.65889966e-03 0 0 0 0
8.96266483e+08 0 0 6.20524361e-03 8.90704931e-03 0 0 0 0
9.21956057e+08 0 0 6.20988516e-03 9.16230816e-03 0 0 0 0
9.48381969e+08 0 0 6.21479657e-03 9.42487968e-03 0 0 0 0
9.75565323e+08 0 0 6.21999350e-03 9.69497313e-03 0 0 0 0
1.00352783e+09 0 0 6.22549257e-03 9.97280375e-03 0 0 0 0
1.03229182e+09 0 0 6.23131132e-03 1.02585929e-02 0 0 0 0
1.06188027e+09 0 0 6.23746835e-03 1.05525683e-02 0 0 0 0
1.09231682e+09 0 0 6.24398331e-03 1.08549641e-02 0 0 0 0
1.12362576e+09 0 0 6.25087700e-03 1.11660211e-02 0 0 0 0
1.15583210e+09 0 0 6.25817143e-03 1.14859871e-02 0 0 0 0
1.18896157e+09 0 0 6.26588991e-03 1.18151167e-02 0 0 0 0
1.22304063e+09 0 0 6.27405706e-03 1.21536720e-02 0 0 0 0
1.25809649e+09 0 0 6.28269896e-03 1.25019225e-02 0 0 0 0
1.29415715e+09 0 0 6.29184320e-03 1.28601452e-02 0 0 0 0
1.33125142e+09 0 0 6.30151897e-03 1.32286251e-02 0 0 0 0
1.36940891e+09 0 0 6.31175715e-03 1.36076554e-02 0 0 0 0
1.40866011e+09 0 0 6.32259043e-03 1.39975373e-02 0 0 0 0
1.44903636e+09 0 0 6.33405338e-03 1.43985809e-02 0 0 0 0
1.49056991e+09 0 0 6.34618258e-03 1.48111048e-02 0 0 0 0
1.53329393e+09 0 0 6.35901674e-03 1.52354368e-02 0 0 0 0
1.57724254e+09 0 0 6.37259680e-03 1.56719141e-02 0 0 0 0
1.62245085e+09 0 0 6.38696611e-03 1.61208831e-02 0 0 0 0
1.66895495e+09 0 0 6.40217050e-03 1.65827002e-02 0 0 0 0
1.71679200e+09 0 0 6.41825848e-03 1.70577318e-02 0 0 0 0
1.76600019e+09 0 0 6.43528137e-03 1.75463549e-02 0 0 0 0
1.81661884e+09 0 0 6.45329345e-03 1.80489566e-02 0 0 0 0
1.86868836e+09 0 0 6.47235218e-03 1.85659355e-02 0 0 0 0
1.92225034e+09 0 0 6.49251833e-03 1.90977009e-02 0 0 0 0
1.97734756e+09 0 0 6.51385619e-03 1.96446740e-02 0 0 0 0
2.03402403e+09 0 0 6.53643379e-03 2.02072876e-02 0 0 0 0
2.09232500e+09 0 0 6.56032311e-03 2.07859867e-02 0 0 0 0
2.15229705e+09 0 0 6.58560027e-03 2.13812288e-02 0 0 0 0
2.21398807e+09 0 0 6.61234583e-03 2.19934842e-02 0 0 0 0
2.27744734e+09 0 0 6.64064500e-03 2.26232362e-02 0 0 0 0
2.34272553e+09 0 0 6.67058794e-03 2.32709817e-02 0 0 0 0
2.40987478e+09 0 0 6.70227001e-03 2.39372315e-02 0 0 0 0
2.47894872e+09 0 0 6.73579211e-03 2.46225103e-02 0 0 0 0
2.55000252e+09 0 0 6.77126097e-03 2.53273578e-02 0 0 0 0
2.62309292e+09 0 0 6.80878949e-03 2.60523283e-02 0 0 0 0
2.69827830e+09 0 0 6.84849710e-03 2.67979915e-02 0 0 0 0
2.77561872e+09 0 0 6.89051015e-03 2.75649329e-02 0 0 0 0
2.85517593e+09 0 0 6.93496227e-03 2.83537539e-02 0 0 0 0
2.93701348e+09 0 0 6.98199483e-03 2.91650727e-02 0 0 0 0
3.02119673e+09 0 0 7.03175735e-03 2.99995241e-02 0 0 0 0
3.10779292e+09 0 0 7.08440800e-03 3.08577605e-02 0 0 0 0
3.19687120e+09 0 0 7.14011407e-03 3.17404518e-02 0 0 0 0
3.28850272e+09 0 0 7.19905249e-03 3.26482862e-02 0 0 0 0
3.38276066e+09 0 0 7.26141040e-03 3.35819705e-02 0 0 0 0
3.47972031e+09 0 0 7.32738572e-03 3.45422306e-02 0 0 0 0
3.57945910e+09 0 0 7.39718779e-03 3.55298117e-02 0 0 0 0
3.68205669e+09 0 0 7.47103796e-03 3.65454790e-02 0 0 0 0
3.78759502e+09 0 0 7.54917037e-03 3.75900182e-02 0 0 0 0
3.89615838e+09 0 0 7.63183256e-03 3.86642356e-02 0 0 0 0
4.00783349e+09 0 0 7.71928635e-03 3.97689587e-02 0 0 0 0
4.12270952e+09 0 0 7.81180856e-03 4.09050370e-02 0 0 0 0
4.24087823e+09 0 0 7.90969190e-03 4.20733419e-02 0 0 0 0
4.36243399e+09 0 0 8.01324587e-03 4.32747673e-02 0 0 0 0
4.48747389e+09 0 0 8.12279768e-03 4.45102305e-02 0 0 0 0
4.61609780e+09 0 0 8.23869329e-03 4.57806718e-02 0 0 0 0
4.74840843e+09 0 0 8.36129843e-03 4.70870557e-02 0 0 0 0
4.88451147e+09 0 0 8.49099973e-03 4.84303708e-02 0 0 0 0
5.02451561e+09 0 0 8.62820586e-03 4.98116306e-02 0 0 0 0
5.16853268e+09 0 0 8.77334882e-03 5.12318734e-02 0 0 0 0
5.31667768e+09 0 0 8.92688519e-03 5.26921631e-02 0 0 0 0
5.46906895e+09 0 0 9.08929749e-03 5.41935896e-02 0 0 0 0
5.62582819e+09 0 0 9.26109568e-03 5.57372686e-02 0 0 0 0
5.78708061e+09 0 0 9.44281862e-03 5.73243425e-02 0 0 0 0
5.95295498e+09 0 0 9.63503568e-03 5.89559804e-02 0 0 0 0
6.12358378e+09 0 0 9.83834843e-03 6.06333783e-02 0 0 0 0
6.29910330e+09 0 0 1.00533924e-02 6.23577594e-02 0 0 0 0
6.47965371e+09 0 0 1.02808389e-02 6.41303744e-02 0 0 0 0
6.66537922e+09 0 0 1.05213970e-02 6.59525012e-02 0 0 0 0
6.85642815e+09 0 0 1.07758156e-02 6.78254454e-02 0 0 0 0
7.05295309e+09 0 0 1.10448856e-02 6.97505403e-02 0 0 0 0
7.25511101e+09 0 0 1.13294419e-02 7.17291465e-02 0 0 0 0
7.46306335e+09 0 0 1.16303662e-02 7.37626519e-02 0 0 0 0
7.67697620e+09 0 0 1.19485889e-02 7.58524717e-02 0 0 0 0
7.89702042e+09 0 0 1.22850924e-02 7.80000479e-02 0 0 0 0
8.12337173e+09 0 0 1.26409132e-02 8.02068489e-02 0 0 0 0
8.35621092e+09 0 0 1.30171449e-02 8.24743691e-02 0 0 0 0
8.59572395e+09 0 0 1.34149415e-02 8.48041282e-02 0 0 0 0
8.84210211e+09 0 0 1.38355198e-02 8.71976703e-02 0 0 0 0
9.09554218e+09 0 0 1.42801633e-02 8.96565635e-02 0 0 0 0
9.35624657e+09 0 0 1.47502252e-02 9.21823983e-02 0 0 0 0
9.62442350e+09 0 0 1.52471320e-02 9.47767865e-02 0 0 0 0
9.90028715e+09 0 0 1.57723871e-02 9.74413599e-02 0 0 0 0
1.01840578e+10 0 0 1.63275746e-02 1.00177769e-01 0 0 0 0
1.04759622e+10 0 0 1.69143632e-02 1.02987680e-01 0 0 0 0
1.07762334e+10 0 0 1.75345100e-02 1.05872775e-01 0 0 0 0
1.10851113e+10 0 0 1.81898654e-02 1.08834746e-01 0 0 0 0
1.14028424e+10 0 0 1.88823765e-02 1.11875297e-01 0 0 0 0
1.17296807e+10 0 0 1.96140923e-02 1.14996136e-01 0 0 0 0
1.20658870e+10 0 0 2.03871679e-02 1.18198978e-01 0 0 0 0
1.24117301e+10 0 0 2.12038692e-02 1.21485534e-01 0 0 0 0
1.27674859e+10 0 0 2.20665780e-02 1.24857512e-01 0 0 0 0
1.31334388e+10 0 0 2.29777965e-02 1.28316613e-01 0 0 0 0
1.35098809e+10 0 0 2.39401527e-02 1.31864523e-01 0 0 0 0
1.38971129e+10 0 0 2.49564051e-02 1.35502910e-01 0 0 0 0
1.42954441e+10 0 0 2.60294480e-02 1.39233416e-01 0 0 0 0
1.47051927e+10 0 0 2.71623166e-02 1.43057656e-01 0 0 0 0
1.51266858e+10 0 0 2.83581924e-02 1.46977203e-01 0 0 0 0
1.55602601e+10 0 0 2.96204078e-02 1.50993588e-01 0 0 0 0
1.60062619e+10 0 0 3.09524516e-02 1.55108288e-01 0 0 0 0
1.64650474e+10 0 0 3.23579737e-02 1.59322718e-01 0 0 0 0
1.69369830e+10 0 0 3.38407903e-02 1.63638221e-01 0 0 0 0
1.74224456e+10 0 0 3.54048881e-02 1.68056059e-01 0 0 0 0
1.79218230e+10 0 0 3.70544290e-02 1.72577401e-01 0 0 0 0
1.84355140e+10 0 0 3.87937540e-02 1.77203312e-01 0 0 0 0
1.89639288e+10 0 0 4.06273871e-02 1.81934739e-01 0 0 0 0
1.95074895e+10 0 0 4.25600386e-02 1.86772500e-01 0 0 0 0
2.00666303e+10 0 0 4.45966077e-02 1.91717266e-01 0 0 0 0
2.06417976e+10 0 0 4.67421847e-02 1.96769549e-01 0 0 0 0
2.12334509e+10 0 0 4.90020525e-02 2.01929682e-01 0 0 0 0
2.18420626e+10 0 0 5.13816872e-02 2.07197806e-01 0 0 0 0
2.24681189e+10 0 0 5.38867578e-02 2.12573848e-01 0 0 0 0
2.31121198e+10 0 0 5.65231247e-02 2.18057506e-01 0 0 0 0
2.37745796e+10 0 0 5.92968374e-02 2.23648222e-01 0 0 0 0
2.44560274e+10 0 0 6.22141303e-02 2.29345170e-01 0 0 0 0
2.51570075e+10 0 0 6.52814174e-02 2.35147224e-01 0 0 0 0
2.58780797e+10 0 0 6.85052856e-02 2.41052944e-01 0 0 0 0
2.66198198e+10 0 0 7.18924855e-02 2.47060548e-01 0 0 0 0
2.73828204e+10 0 0 7.54499207e-02 2.53167888e-01 0 0 0 0
2.81676908e+10 0 0 7.91846352e-02 2.59372425e-01 0 0 0 0
2.89750578e+10 0 0 8.31037977e-02 2.65671204e-01 0 0 0 0
2.98055662e+10 0 0 8.72146842e-02 2.72060832e-01 0 0 0 0
3.06598795e+10 0 0 9.15246576e-02 2.78537445e-01 0 0 0 0
3.15386798e+10 0 0 9.60411444e-02 2.85096689e-01 0 0 0 0
3.24426690e+10 0 0 1.00771608e-01 2.91733691e-01 0 0 0 0
3.33725692e+10 0 0 1.05723522e-01 2.98443037e-01 0 0 0 0
3.43291230e+10 0 0 1.10904331e-01 3.05218746e-01 0 0 0 0
3.53130943e+10 0 0 1.16321424e-01 3.12054249e-01 0 0 0 0
3.63252692e+10 0 0 1.21982087e-01 3.18942370e-01 0 0 0 0
3.73664558e+10 0 0 1.27893464e-01 3.25875303e-01 0 0 0 0
3.84374859e+10 0 0 1.34062509e-01 3.32844601e-01 0 0 0 0
3.95392147e+10 0 0 1.40495938e-01 3.39841157e-01 0 0 0 0
4.06725223e+10 0 0 1.47200172e-01 3.46855201e-01 0 0 0 0
4.18383138e+10 0 0 1.54181284e-01 3.53876288e-01 0 0 0 0
4.30375201e+10 0 0 1.61444940e-01 3.60893303e-01 0 0 0 0
4.42710992e+10 0 0 1.68996333e-01 3.67894458e-01 0 0 0 0
4.55400362e+10 0 0 1.76840120e-01 3.74867307e-01 0 0 0 0
4.68453446e+10 0 0 1.84980357e-01 3.81798760e-01 0 0 0 0
4.81880668e+10 0 0 1.93420431e-01 3.88675102e-01 0 0 0 0
4.95692754e+10 0 0 2.02162987e-01 3.95482026e-01 0 0 0 0
5.09900733e+10 0 0 2.11209867e-01 4.02204667e-01 0 0 0 0
5.24515955e+10 0 0 2.20562036e-01 4.08827647e-01 0 0 0 0
5.39550090e+10 0 0 2.30219518e-01 4.15335128e-01 0 0 0 0
5.55015147e+10 0 0 2.40181333e-01 4.21710869e-01 0 0 0 0
5.70923477e+10 0 0 2.50445434e-01 4.27938299e-01 0 0 0 0
5.87287785e+10 0 0 2.61008657e-01 4.34000589e-01 0 0 0 0
6.04121142e+10 0 0 2.71866668e-01 4.39880740e-01 0 0 0 0
6.21436991e+10 0 0 2.83013918e-01 4.45561673e-01 0 0 0 0
6.39249161e+10 0 0 2.94443615e-01 4.51026328e-01 0 0 0 0
6.57571880e+10 0 0 3.06147691e-01 4.56257768e-01 0 0 0 0
6.76419781e+10 0 0 3.18116792e-01 4.61239290e-01 0 0 0 0
6.95807917e+10 0 0 3.30340271e-01 4.65954541e-01 0 0 0 0
7.15751773e+10 0 0 3.42806194e-01 4.70387632e-01 0 0 0 0
7.36267276e+10 0 0 3.55501360e-01 4.74523258e-01 0 0 0 0
7.57370813e+10 0 0 3.68411334e-01 4.78346822e-01 0 0 0 0
7.79079239e+10 0 0 3.81520493e-01 4.81844544e-01 0 0 0 0
8.01409890e+10 0 0 3.94812081e-01 4.85003583e-01 0 0 0 0
8.24380601e+10 0 0 4.08268284e-01 4.87812148e-01 0 0 0 0
8.48009720e+10 0 0 4.21870313e-01 4.90259594e-01 0 0 0 0
8.72316116e+10 0 0 4.35598499e-01 4.92336526e-01 0 0 0 0
8.97319204e+10 0 0 4.49432399e-01 4.94034881e-01 0 0 0 0
9.23038953e+10 0 0 4.63350918e-01 4.95348007e-01 0 0 0 0
9.49495903e+10 0 0 4.77332427e-01 4.96270719e-01 0 0 0 0
9.76711186e+10 0 0 4.91354902e-01 4.96799357e-01 0 0 0 0
1.00470654e+11 0 0 5.05396056e-01 4.96931816e-01 0 0 0 0
1.03350431e+11 0 0 5.19433486e-01 4.96667566e-01 0 0 0 0
1.06312752e+11 0 0 5.33444809e-01 4.96007663e-01 0 0 0 0
1.09359981e+11 0 0 5.47407813e-01 4.94954731e-01 0 0 0 0
1.12494553e+11 0 0 5.61300588e-01 4.93512941e-01 0 0 0 0
1.15718970e+11 0 0 5.75101669e-01 4.91687972e-01 0 0 0 0
1.19035808e+11 0 0 5.88790164e-01 4.89486953e-01 0 0 0 0
1.22447717e+11 0 0 6.02345874e-01 4.86918398e-01 0 0 0 0
1.25957421e+11 0 0 6.15749413e-01 4.83992128e-01 0 0 0 0
1.29567722e+11 0 0 6.28982304e-01 4.80719179e-01 0 0 0 0
1.33281506e+11 0 0 6.42027076e-01 4.77111704e-01 0 0 0 0
1.37101737e+11 0 0 6.54867343e-01 4.73182867e-01 0 0 0 0
1.41031467e+11 0 0 6.67487871e-01 4.68946734e-01 0 0 0 0
1.45073834e+11 0 0 6.79874630e-01 4.64418150e-01 0 0 0 0
1.49232068e+11 0 0 6.92014837e-01 4.59612626e-01 0 0 0 0
1.53509488e+11 0 0 7.03896986e-01 4.54546220e-01 0 0 0 0
1.57909511e+11 0 0 7.15510858e-01 4.49235414e-01 0 0 0 0
1.62435652e+11 0 0 7.26847526e-01 4.43697000e-01 0 0 0 0
1.67091524e+11 0 0 7.37899351e-01 4.37947970e-01 0 0 0 0
1.71880848e+11 0 0 7.48659956e-01 4.32005399e-01 0 0 0 0
1.76807447e+11 0 0 7.59124200e-01 4.25886352e-01 0 0 0 0
1.81875257e+11 0 0 7.69288144e-01 4.19607781e-01 0 0 0 0
1.87088325e+11 0 0 7.79148999e-01 4.13186438e-01 0 0 0 0
1.92450814e+11 0 0 7.88705080e-01 4.06638793e-01 0 0 0 0
1.97967008e+11 0 0 7.97955749e-01 3.99980959e-01 0 0 0 0
2.03641312e+11 0 0 8.06901348e-01 3.93228628e-01 0 0 0 0
2.09478257e+11 0 0 8.15543141e-01 3.86397013e-01 0 0 0 0
2.15482506e+11 0 0 8.23883244e-01 3.79500799e-01 0 0 0 0
2.21658854e+11 0 0 8.31924558e-01 3.72554098e-01 0 0 0 0
2.28012234e+11 0 0 8.39670699e-01 3.65570421e-01 0 0 0 0
2.34547721e+11 0 0 8.47125930e-01 3.58562648e-01 0 0 0 0
2.41270533e+11 0 0 8.54295093e-01 3.51543005e-01 0 0 0 0
2.48186040e+11 0 0 8.61183547e-01 3.44523058e-01 0 0 0 0
2.55299765e+11 0 0 8.67797097e-01 3.37513700e-01 0 0 0 0
2.62617391e+11 0 0 8.74141941e-01 3.30525151e-01 0 0 0 0
2.70144760e+11 0 0 8.80224602e-01 3.23566961e-01 0 0 0 0
2.77887886e+11 0 0 8.86051883e-01 3.16648014e-01 0 0 0 0
2.85852952e+11 0 0 8.91630805e-01 3.09776543e-01 0 0 0 0
2.94046319e+11 0 0 8.96968564e-01 3.02960144e-01 0 0 0 0
3.02474532e+11 0 0 9.02072486e-01 2.96205789e-01 0 0 0 0
3.11144322e+11 0 0 9.06949982e-01 2.89519848e-01 0 0 0 0
3.20062613e+11 0 0 9.11608510e-01 2.82908113e-01 0 0 0 0
3.29236527e+11 0 0 9.16055544e-01 2.76375813e-01 0 0 0 0
3.38673393e+11 0 0 9.20298537e-01 2.69927648e-01 0 0 0 0
3.48380746e+11 0 0 9.24344899e-01 2.63567805e-01 0 0 0 0
3.58366340e+11 0 0 9.28201965e-01 2.57299989e-01 0 0 0 0
3.68638150e+11 0 0 9.31876979e-01 2.51127445e-01 0 0 0 0
3.79204379e+11 0 0 9.35377068e-01 2.45052986e-01 0 0 0 0
3.90073467e+11 0 0 9.38709233e-01 2.39079020e-01 0 0 0 0
4.01254094e+11 0 0 9.41880327e-01 2.33207568e-01 0 0 0 0
4.12755190e+11 0 0 9.44897047e-01 2.27440298e-01 0 0 0 0
4.24585941e+11 0 0 9.47765924e-01 2.21778543e-01 0 0 0 0
4.36755794e+11 0 0 9.50493313e-01 2.16223325e-01 0 0 0 0
4.49274471e+11 0 0 9.53085387e-01 2.10775380e-01 0 0 0 0
4.62151969e+11 0 0 9.55548133e-01 2.05435178e-01 0 0 0 0
4.75398574e+11 0 0 9.57887349e-01 2.00202943e-01 0 0 0 0
4.89024864e+11 0 0 9.60108639e-01 1.95078675e-01 0 0 0 0
5.03041722e+11 0 0 9.62217415e-01 1.90062168e-01 0 0 0 0
5.17460344e+11 0 0 9.64218896e-01 1.85153025e-01 0 0 0 0
5.32292246e+11 0 0 9.66118108e-01 1.80350682e-01 0 0 0 0
5.47549272e+11 0 0 9.67919889e-01 1.75654416e-01 0 0 0 0
5.63243608e+11 0 0 9.69628885e-01 1.71063365e-01 0 0 0 0
5.79387790e+11 0 0 9.71249559e-01 1.66576542e-01 0 0 0 0
5.95994710e+11 0 0 9.72786194e-01 1.62192846e-01 0 0 0 0
6.13077632e+11 0 0 9.74242891e-01 1.57911075e-01 0 0 0 0
6.30650199e+11 0 0 9.75623580e-01 1.53729939e-01 0 0 0 0
6.48726447e+11 0 0 9.76932023e-01 1.49648070e-01 0 0 0 0
6.67320813e+11 0 0 9.78171813e-01 1.45664032e-01 0 0 0 0
6.86448146e+11 0 0 9.79346389e-01 1.41776328e-01 0 0 0 0
7.06123723e+11 0 0 9.80459032e-01 1.37983414e-01 0 0 0 0
7.26363260e+11 0 0 9.81512873e-01 1.34283700e-01 0 0 0 0
7.47182919e+11 0 0 9.82510901e-01 1.30675563e-01 0 0 0 0
7.68599330e+11 0 0 9.83455964e-01 1.27157351e-01 0 0 0 0
7.90629597e+11 0 0 9.84350777e-01 1.23727390e-01 0 0 0 0
8.13291314e+11 0 0 9.85197925e-01 1.20383987e-01 0 0 0 0
8.36602582e+11 0 0 9.85999871e-01 1.17125440e-01 0 0 0 0
8.60582017e+11 0 0 9.86758957e-01 1.13950039e-01 0 0 0 0
8.85248772e+11 0 0 9.87477410e-01 1.10856070e-01 0 0 0 0
9.10622547e+11 0 0 9.88157352e-01 1.07841821e-01 0 0 0 0
9.36723608e+11 0 0 9.88800796e-01 1.04905585e-01 0 0 0 0
9.63572799e+11 0 0 9.89409657e-01 1.02045662e-01 0 0 0 0
9.91191566e+11 0 0 9.89985754e-01 9.92603624e-02 0 0 0 0
1.01960197e+12 0 0 9.90530814e-01 9.65480093e-02 0 0 0 0
1.04882669e+12 0 0 9.91046477e-01 9.39069412e-02 0 0 0 0
1.07888908e+12 0 0 9.91534300e-01 9.13355141e-02 0 0 0 0
1.10981314e+12 0 0 9.91995760e-01 8.88321025e-02 0 0 0 0
1.14162358e+12 0 0 9.92432260e-01 8.63951014e-02 0 0 0 0
1.17434579e+12 0 0 9.92845129e-01 8.40229277e-02 0 0 0 0
1.20800592e+12 0 0 9.93235627e-01 8.17140214e-02 0 0 0 0
1.24263084e+12 0 0 9.93604951e-01 7.94668461e-02 0 0 0 0
1.27824821e+12 0 0 9.93954234e-01 7.72798906e-02 0 0 0 0
1.31488648e+12 0 0 9.94284551e-01 7.51516690e-02 0 0 0 0
1.35257491e+12 0 0 9.94596919e-01 7.30807217e-02 0 0 0 0
1.39134360e+12 0 0 9.94892303e-01 7.10656154e-02 0 0 0 0
1.43122351e+12 0 0 9.95171618e-01 6.91049442e-02 0 0 0 0
1.47224649e+12 0 0 9.95435728e-01 6.71973291e-02 0 0 0 0
1.51444530e+12 0 0 9.95685455e-01 6.53414184e-02 0 0 0 0
1.55785366e+12 0 0 9.95921575e-01 6.35358884e-02 0 0 0 0
1.60250623e+12 0 0 9.96144824e-01 6.17794424e-02 0 0 0 0
1.64843866e+12 0 0 9.96355896e-01 6.00708117e-02 0 0 0 0
1.69568765e+12 0 0 9.96555453e-01 5.84087546e-02 0 0 0 0
1.74429094e+12 0 0 9.96744118e-01 5.67920571e-02 0 0 0 0
1.79428733e+12 0 0 9.96922481e-01 5.52195321e-02 0 0 0 0
1.84571676e+12 0 0 9.97091102e-01 5.36900194e-02 0 0 0 0
1.89862031e+12 0 0 9.97250509e-01 5.22023856e-02 0 0 0 0
1.95304023e+12 0 0 9.97401204e-01 5.07555234e-02 0 0 0 0
2.00901998e+12 0 0 9.97543660e-01 4.93483518e-02 0 0 0 0
2.06660427e+12 0 0 9.97678326e-01 4.79798154e-02 0 0 0 0
2.12583909e+12 0 0 9.97805625e-01 4.66488841e-02 0 0 0 0
2.18677175e+12 0 0 9.97925959e-01 4.53545527e-02 0 0 0 0
2.24945091e+12 0 0 9.98039706e-01 4.40958408e-02 0 0 0 0
2.31392665e+12 0 0 9.98147228e-01 4.28717918e-02 0 0 0 0
2.38025044e+12 0 0 9.98248862e-01 4.16814733e-02 0 0 0 0
2.44847526e+12 0 0 9.98344930e-01 4.05239757e-02 0 0 0 0
2.51865560e+12 0 0 9.98435736e-01 3.93984126e-02 0 0 0 0
2.59084751e+12 0 0 9.98521568e-01 3.83039199e-02 0 0 0 0
2.66510865e+12 0 0 9.98602697e-01 3.72396557e-02 0 0 0 0
2.74149833e+12 0 0 9.98679379e-01 3.62047993e-02 0 0 0 0
2.82007755e+12 0 0 9.98751859e-01 3.51985514e-02 0 0 0 0
2.90090908e+12 0 0 9.98820365e-01 3.42201332e-02 0 0 0 0
2.98405748e+12 0 0 9.98885116e-01 3.32687862e-02 0 0 0 0
3.06958914e+12 0 0 9.98946316e-01 3.23437717e-02 0 0 0 0
3.15757239e+12 0 0 9.99004160e-01 3.14443700e-02 0 0 0 0
3.24807750e+12 0 0 9.99058832e-01 3.05698808e-02 0 0 0 0
3.34117674e+12 0 0 9.99110504e-01 2.97196218e-02 0 0 0 0
3.43694447e+12 0 0 9.99159343e-01 2.88929291e-02 0 0 0 0
3.53545718e+12 0 0 9.99205501e-01 2.80891562e-02 0 0 0 0
3.63679355e+12 0 0 9.99249128e-01 2.73076737e-02 0 0 0 0
3.74103451e+12 0 0 9.99290360e-01 2.65478692e-02 0 0 0 0
3.84826331e+12 0 0 9.99329330e-01 2.58091465e-02 0 0 0 0
3.95856561e+12 0 0 9.99366161e-01 2.50909255e-02 0 0 0 0
4.07202948e+12 0 0 9.99400971e-01 2.43926416e-02 0 0 0 0
4.18874555e+12 0 0 9.99433870e-01 2.37137454e-02 0 0 0 0
4.30880704e+12 0 0 9.99464963e-01 2.30537024e-02 0 0 0 0
4.43230984e+12 0 0 9.99494350e-01 2.24119922e-02 0 0 0 0
4.55935258e+12 0 0 9.99522123e-01 2.17881090e-02 0 0 0 0
4.69003674e+12 0 0 9.99548371e-01 2.11815603e-02 0 0 0 0
4.82446668e+12 0 0 9.99573178e-01 2.05918671e-02 0 0 0 0
4.96274976e+12 0 0 9.99596624e-01 2.00185635e-02 0 0 0 0
5.10499644e+12 0 0 9.99618781e-01 1.94611961e-02 0 0 0 0
5.25132032e+12 0 0 9.99639723e-01 1.89193241e-02 0 0 0 0
5.40183826e+12 0 0 9.99659514e-01 1.83925185e-02 0 0 0 0
5.55667047e+12 0 0 9.99678218e-01 1.78803622e-02 0 0 0 0
5.71594062e+12 0 0 9.99695895e-01 1.73824493e-02 0 0 0 0
5.87977592e+12 0 0 9.99712602e-01 1.68983853e-02 0 0 0 0
6.04830720e+12 0 0 9.99728390e-01 1.64277862e-02 0 0 0 0
6.22166908e+12 0 0 9.99743312e-01 1.59702788e-02 0 0 0 0
6.40000000e+12 0 0 9.99757414e-01 1.55255000e-02 0 0 0 0
