! RC peaking equalizer  S21(f) = (1 + jwR_eqC_eq)/(eta + jwR_eqC_eq)
! corrected H_eq per EYE_TOOL_SPEC sec 3.4  (eta=128.998, R_eq=7781.86 ohm, C_eq=2.63827e-14 F)
# Hz S RI R 50
1.00000000e+00 0 0 7.75205367e-03 9.92247946e-12 0 0 0 0
1.00000000e+03 0 0 7.75205367e-03 9.92247946e-09 0 0 0 0
1.02866288e+03 0 0 7.75205367e-03 1.02068863e-08 0 0 0 0
1.05814731e+03 0 0 7.75205367e-03 1.04994450e-08 0 0 0 0
1.08847686e+03 0 0 7.75205367e-03 1.08003892e-08 0 0 0 0
1.11967573e+03 0 0 7.75205367e-03 1.11099595e-08 0 0 0 0
1.15176886e+03 0 0 7.75205367e-03 1.14284028e-08 0 0 0 0
1.18478186e+03 0 0 7.75205367e-03 1.17559737e-08 0 0 0 0
1.21874112e+03 0 0 7.75205367e-03 1.20929337e-08 0 0 0 0
1.25367374e+03 0 0 7.75205367e-03 1.24395520e-08 0 0 0 0
1.28960764e+03 0 0 7.75205367e-03 1.27961053e-08 0 0 0 0
1.32657150e+03 0 0 7.75205367e-03 1.31628785e-08 0 0 0 0
1.36459485e+03 0 0 7.75205367e-03 1.35401644e-08 0 0 0 0
1.40370807e+03 0 0 7.75205367e-03 1.39282645e-08 0 0 0 0
1.44394238e+03 0 0 7.75205367e-03 1.43274886e-08 0 0 0 0
1.48532992e+03 0 0 7.75205367e-03 1.47381556e-08 0 0 0 0
1.52790374e+03 0 0 7.75205367e-03 1.51605935e-08 0 0 0 0
1.57169786e+03 0 0 7.75205367e-03 1.55951397e-08 0 0 0 0
1.61674724e+03 0 0 7.75205367e-03 1.60421412e-08 0 0 0 0
1.66308786e+03 0 0 7.75205367e-03 1.65019551e-08 0 0 0 0
1.71075674e+03 0 0 7.75205367e-03 1.69749486e-08 0 0 0 0
1.75979195e+03 0 0 7.75205367e-03 1.74614995e-08 0 0 0 0
1.81023264e+03 0 0 7.75205367e-03 1.79619962e-08 0 0 0 0
1.86211912e+03 0 0 7.75205367e-03 1.84768387e-08 0 0 0 0
1.91549280e+03 0 0 7.75205367e-03 1.90064380e-08 0 0 0 0
1.97039634e+03 0 0 7.75205367e-03 1.95512172e-08 0 0 0 0
2.02687356e+03 0 0 7.75205367e-03 2.01116113e-08 0 0 0 0
2.08496958e+03 0 0 7.75205367e-03 2.06880679e-08 0 0 0 0
2.14473081e+03 0 0 7.75205367e-03 2.12810474e-08 0 0 0 0
2.20620496e+03 0 0 7.75205367e-03 2.18910234e-08 0 0 0 0
2.26944114e+03 0 0 7.75205367e-03 2.25184831e-08 0 0 0 0
2.33448984e+03 0 0 7.75205367e-03 2.31639275e-08 0 0 0 0
2.40140304e+03 0 0 7.75205367e-03 2.38278723e-08 0 0 0 0
2.47023415e+03 0 0 7.75205367e-03 2.45108476e-08 0 0 0 0
2.54103816e+03 0 0 7.75205367e-03 2.52133990e-08 0 0 0 0
2.61387162e+03 0 0 7.75205367e-03 2.59360875e-08 0 0 0 0
2.68879270e+03 0 0 7.75205367e-03 2.66794904e-08 0 0 0 0
2.76586123e+03 0 0 7.75205367e-03 2.74442013e-08 0 0 0 0
2.84513877e+03 0 0 7.75205367e-03 2.82308310e-08 0 0 0 0
2.92668862e+03 0 0 7.75205367e-03 2.90400078e-08 0 0 0 0
3.01057593e+03 0 0 7.75205367e-03 2.98723779e-08 0 0 0 0
3.09686770e+03 0 0 7.75205367e-03 3.07286061e-08 0 0 0 0
3.18563283e+03 0 0 7.75205367e-03 3.16093763e-08 0 0 0 0
3.27694223e+03 0 0 7.75205367e-03 3.25153919e-08 0 0 0 0
3.37086881e+03 0 0 7.75205367e-03 3.34473766e-08 0 0 0 0
3.46748760e+03 0 0 7.75205367e-03 3.44060745e-08 0 0 0 0
3.56687577e+03 0 0 7.75205367e-03 3.53922516e-08 0 0 0 0
3.66911268e+03 0 0 7.75205367e-03 3.64066953e-08 0 0 0 0
3.77428000e+03 0 0 7.75205367e-03 3.74502158e-08 0 0 0 0
3.88246172e+03 0 0 7.75205367e-03 3.85236467e-08 0 0 0 0
3.99374424e+03 0 0 7.75205367e-03 3.96278452e-08 0 0 0 0
4.10821643e+03 0 0 7.75205367e-03 4.07636931e-08 0 0 0 0
4.22596972e+03 0 0 7.75205367e-03 4.19320978e-08 0 0 0 0
4.34709817e+03 0 0 7.75205367e-03 4.31339923e-08 0 0 0 0
4.47169850e+03 0 0 7.75205367e-03 4.43703365e-08 0 0 0 0
4.59987024e+03 0 0 7.75205367e-03 4.56421179e-08 0 0 0 0
4.73171574e+03 0 0 7.75205367e-03 4.69503523e-08 0 0 0 0
4.86734032e+03 0 0 7.75205367e-03 4.82960844e-08 0 0 0 0
5.00685229e+03 0 0 7.75205367e-03 4.96803890e-08 0 0 0 0
5.15036307e+03 0 0 7.75205367e-03 5.11043718e-08 0 0 0 0
5.29798729e+03 0 0 7.75205367e-03 5.25691700e-08 0 0 0 0
5.44984283e+03 0 0 7.75205367e-03 5.40759536e-08 0 0 0 0
5.60605100e+03 0 0 7.75205367e-03 5.56259259e-08 0 0 0 0
5.76673654e+03 0 0 7.75205367e-03 5.72203249e-08 0 0 0 0
5.93202779e+03 0 0 7.75205367e-03 5.88604239e-08 0 0 0 0
6.10205676e+03 0 0 7.75205367e-03 6.05475329e-08 0 0 0 0
6.27695925e+03 0 0 7.75205367e-03 6.22829993e-08 0 0 0 0
6.45687495e+03 0 0 7.75205367e-03 6.40682091e-08 0 0 0 0
6.64194756e+03 0 0 7.75205367e-03 6.59045882e-08 0 0 0 0
6.83232487e+03 0 0 7.75205367e-03 6.77936032e-08 0 0 0 0
7.02815895e+03 0 0 7.75205367e-03 6.97367628e-08 0 0 0 0
7.22960619e+03 0 0 7.75205367e-03 7.17356189e-08 0 0 0 0
7.43682749e+03 0 0 7.75205367e-03 7.37917680e-08 0 0 0 0
7.64998835e+03 0 0 7.75205367e-03 7.59068523e-08 0 0 0 0
7.86925901e+03 0 0 7.75205367e-03 7.80825609e-08 0 0 0 0
8.09481460e+03 0 0 7.75205367e-03 8.03206316e-08 0 0 0 0
8.32683526e+03 0 0 7.75205367e-03 8.26228519e-08 0 0 0 0
8.56550630e+03 0 0 7.75205367e-03 8.49910604e-08 0 0 0 0
8.81101834e+03 0 0 7.75205367e-03 8.74271485e-08 0 0 0 0
9.06356746e+03 0 0 7.75205367e-03 8.99330620e-08 0 0 0 0
9.32335536e+03 0 0 7.75205367e-03 9.25108021e-08 0 0 0 0
9.59058953e+03 0 0 7.75205367e-03 9.51624277e-08 0 0 0 0
9.86548340e+03 0 0 7.75205367e-03 9.78900565e-08 0 0 0 0
1.01482565e+04 0 0 7.75205367e-03 1.00695867e-07 0 0 0 0
1.04391347e+04 0 0 7.75205367e-03 1.03582100e-07 0 0 0 0
1.07383504e+04 0 0 7.75205367e-03 1.06551061e-07 0 0 0 0
1.10461423e+04 0 0 7.75205367e-03 1.09605121e-07 0 0 0 0
1.13627565e+04 0 0 7.75205367e-03 1.12746718e-07 0 0 0 0
1.16884458e+04 0 0 7.75205367e-03 1.15978364e-07 0 0 0 0
1.20234703e+04 0 0 7.75205367e-03 1.19302637e-07 0 0 0 0
1.23680975e+04 0 0 7.75205367e-03 1.22722194e-07 0 0 0 0
1.27226028e+04 0 0 7.75205367e-03 1.26239765e-07 0 0 0 0
1.30872691e+04 0 0 7.75205367e-03 1.29858159e-07 0 0 0 0
1.34623879e+04 0 0 7.75205367e-03 1.33580267e-07 0 0 0 0
1.38482586e+04 0 0 7.75205367e-03 1.37409062e-07 0 0 0 0
1.42451895e+04 0 0 7.75205367e-03 1.41347601e-07 0 0 0 0
1.46534976e+04 0 0 7.75205367e-03 1.45399029e-07 0 0 0 0
1.50735090e+04 0 0 7.75205367e-03 1.49566584e-07 0 0 0 0
1.55055591e+04 0 0 7.75205367e-03 1.53853592e-07 0 0 0 0
1.59499930e+04 0 0 7.75205367e-03 1.58263478e-07 0 0 0 0
1.64071657e+04 0 0 7.75205367e-03 1.62799765e-07 0 0 0 0
1.68774422e+04 0 0 7.75205367e-03 1.67466074e-07 0 0 0 0
1.73611982e+04 0 0 7.75205367e-03 1.72266133e-07 0 0 0 0
1.78588201e+04 0 0 7.75205367e-03 1.77203776e-07 0 0 0 0
1.83707052e+04 0 0 7.75205367e-03 1.82282945e-07 0 0 0 0
1.88972625e+04 0 0 7.75205367e-03 1.87507699e-07 0 0 0 0
1.94389124e+04 0 0 7.75205367e-03 1.92882209e-07 0 0 0 0
1.99960875e+04 0 0 7.75205367e-03 1.98410767e-07 0 0 0 0
2.05692328e+04 0 0 7.75205367e-03 2.04097790e-07 0 0 0 0
2.11588062e+04 0 0 7.75205367e-03 2.09947820e-07 0 0 0 0
2.17652784e+04 0 0 7.75205367e-03 2.15965528e-07 0 0 0 0
2.23891339e+04 0 0 7.75205367e-03 2.22155721e-07 0 0 0 0
2.30308708e+04 0 0 7.75205367e-03 2.28523343e-07 0 0 0 0
2.36910018e+04 0 0 7.75205367e-03 2.35073479e-07 0 0 0 0
2.43700540e+04 0 0 7.75205367e-03 2.41811361e-07 0 0 0 0
2.50685698e+04 0 0 7.75205367e-03 2.48742369e-07 0 0 0 0
2.57871071e+04 0 0 7.75205367e-03 2.55872041e-07 0 0 0 0
2.65262398e+04 0 0 7.75205367e-03 2.63206069e-07 0 0 0 0
2.72865581e+04 0 0 7.75205367e-03 2.70750312e-07 0 0 0 0
2.80686693e+04 0 0 7.75205367e-03 2.78510794e-07 0 0 0 0
2.88731980e+04 0 0 7.75205367e-03 2.86493715e-07 0 0 0 0
2.97007869e+04 0 0 7.75205367e-03 2.94705448e-07 0 0 0 0
3.05520969e+04 0 0 7.75205367e-03 3.03152554e-07 0 0 0 0
3.14278078e+04 0 0 7.75205367e-03 3.11841778e-07 0 0 0 0
3.23286191e+04 0 0 7.75205367e-03 3.20780060e-07 0 0 0 0
3.32552503e+04 0 0 7.75205367e-03 3.29974538e-07 0 0 0 0
3.42084414e+04 0 0 7.75205367e-03 3.39432557e-07 0 0 0 0
3.51889537e+04 0 0 7.75205367e-03 3.49161670e-07 0 0 0 0
3.61975703e+04 0 0 7.75205367e-03 3.59169648e-07 0 0 0 0
3.72350967e+04 0 0 7.75205367e-03 3.69464483e-07 0 0 0 0
3.83023617e+04 0 0 7.75205367e-03 3.80054397e-07 0 0 0 0
3.94002175e+04 0 0 7.75205367e-03 3.90947849e-07 0 0 0 0
4.05295410e+04 0 0 7.75205367e-03 4.02153538e-07 0 0 0 0
4.16912342e+04 0 0 7.75205367e-03 4.13680415e-07 0 0 0 0
4.28862248e+04 0 0 7.75205367e-03 4.25537685e-07 0 0 0 0
4.41154673e+04 0 0 7.75205367e-03 4.37734819e-07 0 0 0 0
4.53799435e+04 0 0 7.75205367e-03 4.50281557e-07 0 0 0 0
4.66806631e+04 0 0 7.75205367e-03 4.63187921e-07 0 0 0 0
4.80186652e+04 0 0 7.75205367e-03 4.76464219e-07 0 0 0 0
4.93950182e+04 0 0 7.75205367e-03 4.90121053e-07 0 0 0 0
5.08108214e+04 0 0 7.75205367e-03 5.04169332e-07 0 0 0 0
5.22672056e+04 0 0 7.75205367e-03 5.18620275e-07 0 0 0 0
5.37653340e+04 0 0 7.75205367e-03 5.33485423e-07 0 0 0 0
5.53064031e+04 0 0 7.75205367e-03 5.48776649e-07 0 0 0 0
5.68916436e+04 0 0 7.75205367e-03 5.64506166e-07 0 0 0 0
5.85223217e+04 0 0 7.75205367e-03 5.80686535e-07 0 0 0 0
6.01997397e+04 0 0 7.75205367e-03 5.97330681e-07 0 0 0 0
6.19252374e+04 0 0 7.75205367e-03 6.14451896e-07 0 0 0 0
6.37001927e+04 0 0 7.75205367e-03 6.32063854e-07 0 0 0 0
6.55260234e+04 0 0 7.75205367e-03 6.50180621e-07 0 0 0 0
6.74041876e+04 0 0 7.75205367e-03 6.68816667e-07 0 0 0 0
6.93361854e+04 0 0 7.75205367e-03 6.87986876e-07 0 0 0 0
7.13235599e+04 0 0 7.75205367e-03 7.07706558e-07 0 0 0 0
7.33678982e+04 0 0 7.75205367e-03 7.27991463e-07 0 0 0 0
7.54708331e+04 0 0 7.75205367e-03 7.48857791e-07 0 0 0 0
7.76340442e+04 0 0 7.75205367e-03 7.70322209e-07 0 0 0 0
7.98592591e+04 0 0 7.75205367e-03 7.92401858e-07 0 0 0 0
8.21482551e+04 0 0 7.75205367e-03 8.15114374e-07 0 0 0 0
8.45028602e+04 0 0 7.75205367e-03 8.38477895e-07 0 0 0 0
8.69249552e+04 0 0 7.75205367e-03 8.62511083e-07 0 0 0 0
8.94164743e+04 0 0 7.75205367e-03 8.87233130e-07 0 0 0 0
9.19794076e+04 0 0 7.75205367e-03 9.12663783e-07 0 0 0 0
9.46158019e+04 0 0 7.75205367e-03 9.38823351e-07 0 0 0 0
9.73277628e+04 0 0 7.75205367e-03 9.65732728e-07 0 0 0 0
1.00117456e+05 0 0 7.75205367e-03 9.93413404e-07 0 0 0 0
1.02987110e+05 0 0 7.75205367e-03 1.02188749e-06 0 0 0 0
1.05939017e+05 0 0 7.75205367e-03 1.05117772e-06 0 0 0 0
1.08975534e+05 0 0 7.75205367e-03 1.08130750e-06 0 0 0 0
1.12099086e+05 0 0 7.75205367e-03 1.11230088e-06 0 0 0 0
1.15312168e+05 0 0 7.75205367e-03 1.14418262e-06 0 0 0 0
1.18617347e+05 0 0 7.75205367e-03 1.17697819e-06 0 0 0 0
1.22017261e+05 0 0 7.75205367e-03 1.21071376e-06 0 0 0 0
1.25514626e+05 0 0 7.75205367e-03 1.24541630e-06 0 0 0 0
1.29112236e+05 0 0 7.75205367e-03 1.28111351e-06 0 0 0 0
1.32812964e+05 0 0 7.75205367e-03 1.31783391e-06 0 0 0 0
1.36619766e+05 0 0 7.75205367e-03 1.35560682e-06 0 0 0 0
1.40535681e+05 0 0 7.75205367e-03 1.39446241e-06 0 0 0 0
1.44563838e+05 0 0 7.75205367e-03 1.43443171e-06 0 0 0 0
1.48707453e+05 0 0 7.75205367e-03 1.47554665e-06 0 0 0 0
1.52969836e+05 0 0 7.75205367e-03 1.51784006e-06 0 0 0 0
1.57354391e+05 0 0 7.75205367e-03 1.56134572e-06 0 0 0 0
1.61864621e+05 0 0 7.75205367e-03 1.60609838e-06 0 0 0 0
1.66504126e+05 0 0 7.75205367e-03 1.65213377e-06 0 0 0 0
1.71276613e+05 0 0 7.75205367e-03 1.69948868e-06 0 0 0 0
1.76185893e+05 0 0 7.75205367e-03 1.74820091e-06 0 0 0 0
1.81235888e+05 0 0 7.75205367e-03 1.79830937e-06 0 0 0 0
1.86430629e+05 0 0 7.75205367e-03 1.84985409e-06 0 0 0 0
1.91774267e+05 0 0 7.75205367e-03 1.90287623e-06 0 0 0 0
1.97271069e+05 0 0 7.75205367e-03 1.95741813e-06 0 0 0 0
2.02925425e+05 0 0 7.75205367e-03 2.01352336e-06 0 0 0 0
2.08741851e+05 0 0 7.75205368e-03 2.07123673e-06 0 0 0 0
2.14724993e+05 0 0 7.75205368e-03 2.13060433e-06 0 0 0 0
2.20879629e+05 0 0 7.75205368e-03 2.19167358e-06 0 0 0 0
2.27210674e+05 0 0 7.75205368e-03 2.25449324e-06 0 0 0 0
2.33723185e+05 0 0 7.75205368e-03 2.31911350e-06 0 0 0 0
2.40422364e+05 0 0 7.75205368e-03 2.38558596e-06 0 0 0 0
2.47313560e+05 0 0 7.75205368e-03 2.45396372e-06 0 0 0 0
2.54402277e+05 0 0 7.75205368e-03 2.52430137e-06 0 0 0 0
2.61694178e+05 0 0 7.75205368e-03 2.59665511e-06 0 0 0 0
2.69195086e+05 0 0 7.75205368e-03 2.67108271e-06 0 0 0 0
2.76910991e+05 0 0 7.75205368e-03 2.74764362e-06 0 0 0 0
2.84848056e+05 0 0 7.75205368e-03 2.82639899e-06 0 0 0 0
2.93012620e+05 0 0 7.75205368e-03 2.90741171e-06 0 0 0 0
3.01411205e+05 0 0 7.75205368e-03 2.99074649e-06 0 0 0 0
3.10050516e+05 0 0 7.75205368e-03 3.07646988e-06 0 0 0 0
3.18937456e+05 0 0 7.75205368e-03 3.16465035e-06 0 0 0 0
3.28079120e+05 0 0 7.75205368e-03 3.25535833e-06 0 0 0 0
3.37482811e+05 0 0 7.75205368e-03 3.34866626e-06 0 0 0 0
3.47156039e+05 0 0 7.75205368e-03 3.44464867e-06 0 0 0 0
3.57106529e+05 0 0 7.75205368e-03 3.54338220e-06 0 0 0 0
3.67342229e+05 0 0 7.75205368e-03 3.64494572e-06 0 0 0 0
3.77871313e+05 0 0 7.75205368e-03 3.74942035e-06 0 0 0 0
3.88702192e+05 0 0 7.75205369e-03 3.85688951e-06 0 0 0 0
3.99843514e+05 0 0 7.75205369e-03 3.96743906e-06 0 0 0 0
4.11304179e+05 0 0 7.75205369e-03 4.08115727e-06 0 0 0 0
4.23093339e+05 0 0 7.75205369e-03 4.19813497e-06 0 0 0 0
4.35220411e+05 0 0 7.75205369e-03 4.31846559e-06 0 0 0 0
4.47695079e+05 0 0 7.75205369e-03 4.44224523e-06 0 0 0 0
4.60527307e+05 0 0 7.75205369e-03 4.56957275e-06 0 0 0 0
4.73727344e+05 0 0 7.75205369e-03 4.70054984e-06 0 0 0 0
4.87305732e+05 0 0 7.75205369e-03 4.83528112e-06 0 0 0 0
5.01273315e+05 0 0 7.75205370e-03 4.97387418e-06 0 0 0 0
5.15641250e+05 0 0 7.75205370e-03 5.11643971e-06 0 0 0 0
5.30421011e+05 0 0 7.75205370e-03 5.26309158e-06 0 0 0 0
5.45624402e+05 0 0 7.75205370e-03 5.41394692e-06 0 0 0 0
5.61263566e+05 0 0 7.75205370e-03 5.56912621e-06 0 0 0 0
5.77350994e+05 0 0 7.75205370e-03 5.72875338e-06 0 0 0 0
5.93899533e+05 0 0 7.75205371e-03 5.89295592e-06 0 0 0 0
6.10922401e+05 0 0 7.75205371e-03 6.06186498e-06 0 0 0 0
6.28433194e+05 0 0 7.75205371e-03 6.23561546e-06 0 0 0 0
6.46445896e+05 0 0 7.75205371e-03 6.41434613e-06 0 0 0 0
6.64974894e+05 0 0 7.75205371e-03 6.59819973e-06 0 0 0 0
6.84034987e+05 0 0 7.75205372e-03 6.78732311e-06 0 0 0 0
7.03641396e+05 0 0 7.75205372e-03 6.98186730e-06 0 0 0 0
7.23809782e+05 0 0 7.75205372e-03 7.18198769e-06 0 0 0 0
7.44556251e+05 0 0 7.75205373e-03 7.38784411e-06 0 0 0 0
7.65897374e+05 0 0 7.75205373e-03 7.59960097e-06 0 0 0 0
7.87850195e+05 0 0 7.75205373e-03 7.81742738e-06 0 0 0 0
8.10432247e+05 0 0 7.75205374e-03 8.04149733e-06 0 0 0 0
8.33661565e+05 0 0 7.75205374e-03 8.27198976e-06 0 0 0 0
8.57556703e+05 0 0 7.75205374e-03 8.50908877e-06 0 0 0 0
8.82136744e+05 0 0 7.75205375e-03 8.75298372e-06 0 0 0 0
9.07421319e+05 0 0 7.75205375e-03 9.00386940e-06 0 0 0 0
9.33430623e+05 0 0 7.75205376e-03 9.26194619e-06 0 0 0 0
9.60185429e+05 0 0 7.75205376e-03 9.52742020e-06 0 0 0 0
9.87707104e+05 0 0 7.75205377e-03 9.80050345e-06 0 0 0 0
1.01601763e+06 0 0 7.75205377e-03 1.00814141e-05 0 0 0 0
1.04513962e+06 0 0 7.75205378e-03 1.03703764e-05 0 0 0 0
1.07509632e+06 0 0 7.75205379e-03 1.06676212e-05 0 0 0 0
1.10591167e+06 0 0 7.75205379e-03 1.09733859e-05 0 0 0 0
1.13761028e+06 0 0 7.75205380e-03 1.12879147e-05 0 0 0 0
1.17021746e+06 0 0 7.75205381e-03 1.16114588e-05 0 0 0 0
1.20375926e+06 0 0 7.75205381e-03 1.19442765e-05 0 0 0 0
1.23826246e+06 0 0 7.75205382e-03 1.22866339e-05 0 0 0 0
1.27375463e+06 0 0 7.75205383e-03 1.26388041e-05 0 0 0 0
1.31026410e+06 0 0 7.75205384e-03 1.30010686e-05 0 0 0 0
1.34782003e+06 0 0 7.75205385e-03 1.33737166e-05 0 0 0 0
1.38645243e+06 0 0 7.75205386e-03 1.37570457e-05 0 0 0 0
1.42619214e+06 0 0 7.75205387e-03 1.41513622e-05 0 0 0 0
1.46707091e+06 0 0 7.75205388e-03 1.45569810e-05 0 0 0 0
1.50912138e+06 0 0 7.75205390e-03 1.49742259e-05 0 0 0 0
1.55237714e+06 0 0 7.75205391e-03 1.54034303e-05 0 0 0 0
1.59687273e+06 0 0 7.75205392e-03 1.58449369e-05 0 0 0 0
1.64264369e+06 0 0 7.75205394e-03 1.62990983e-05 0 0 0 0
1.68972658e+06 0 0 7.75205395e-03 1.67662773e-05 0 0 0 0
1.73815901e+06 0 0 7.75205397e-03 1.72468470e-05 0 0 0 0
1.78797964e+06 0 0 7.75205399e-03 1.77411913e-05 0 0 0 0
1.83922828e+06 0 0 7.75205401e-03 1.82497048e-05 0 0 0 0
1.89194585e+06 0 0 7.75205403e-03 1.87727938e-05 0 0 0 0
1.94617446e+06 0 0 7.75205405e-03 1.93108761e-05 0 0 0 0
2.00195741e+06 0 0 7.75205407e-03 1.98643813e-05 0 0 0 0
2.05933927e+06 0 0 7.75205409e-03 2.04337516e-05 0 0 0 0
2.11836585e+06 0 0 7.75205412e-03 2.10194417e-05 0 0 0 0
2.17908431e+06 0 0 7.75205414e-03 2.16219193e-05 0 0 0 0
2.24154313e+06 0 0 7.75205417e-03 2.22416657e-05 0 0 0 0
2.30579220e+06 0 0 7.75205420e-03 2.28791758e-05 0 0 0 0
2.37188284e+06 0 0 7.75205423e-03 2.35349587e-05 0 0 0 0
2.43986782e+06 0 0 7.75205426e-03 2.42095383e-05 0 0 0 0
2.50980145e+06 0 0 7.75205430e-03 2.49034533e-05 0 0 0 0
2.58173957e+06 0 0 7.75205433e-03 2.56172579e-05 0 0 0 0
2.65573965e+06 0 0 7.75205437e-03 2.63515221e-05 0 0 0 0
2.73186079e+06 0 0 7.75205441e-03 2.71068325e-05 0 0 0 0
2.81016377e+06 0 0 7.75205445e-03 2.78837923e-05 0 0 0 0
2.89071114e+06 0 0 7.75205450e-03 2.86830219e-05 0 0 0 0
2.97356724e+06 0 0 7.75205455e-03 2.95051598e-05 0 0 0 0
3.05879822e+06 0 0 7.75205460e-03 3.03508625e-05 0 0 0 0
3.14647218e+06 0 0 7.75205465e-03 3.12208055e-05 0 0 0 0
3.23665911e+06 0 0 7.75205471e-03 3.21156836e-05 0 0 0 0
3.32943107e+06 0 0 7.75205477e-03 3.30362114e-05 0 0 0 0
3.42486214e+06 0 0 7.75205483e-03 3.39831242e-05 0 0 0 0
3.52302854e+06 0 0 7.75205490e-03 3.49571782e-05 0 0 0 0
3.62400866e+06 0 0 7.75205497e-03 3.59591515e-05 0 0 0 0
3.72788317e+06 0 0 7.75205505e-03 3.69898442e-05 0 0 0 0
3.83473502e+06 0 0 7.75205513e-03 3.80500794e-05 0 0 0 0
3.94464955e+06 0 0 7.75205521e-03 3.91407041e-05 0 0 0 0
4.05771455e+06 0 0 7.75205530e-03 4.02625892e-05 0 0 0 0
4.17402032e+06 0 0 7.75205540e-03 4.14166308e-05 0 0 0 0
4.29365974e+06 0 0 7.75205550e-03 4.26037505e-05 0 0 0 0
4.41672837e+06 0 0 7.75205561e-03 4.38248965e-05 0 0 0 0
4.54332451e+06 0 0 7.75205572e-03 4.50810440e-05 0 0 0 0
4.67354925e+06 0 0 7.75205584e-03 4.63731964e-05 0 0 0 0
4.80750661e+06 0 0 7.75205596e-03 4.77023855e-05 0 0 0 0
4.94530357e+06 0 0 7.75205610e-03 4.90696730e-05 0 0 0 0
5.08705019e+06 0 0 7.75205624e-03 5.04761509e-05 0 0 0 0
5.23285968e+06 0 0 7.75205639e-03 5.19229425e-05 0 0 0 0
5.38284848e+06 0 0 7.75205655e-03 5.34112034e-05 0 0 0 0
5.53713640e+06 0 0 7.75205671e-03 5.49421220e-05 0 0 0 0
5.69584665e+06 0 0 7.75205689e-03 5.65169212e-05 0 0 0 0
5.85910599e+06 0 0 7.75205708e-03 5.81368586e-05 0 0 0 0
6.02704481e+06 0 0 7.75205728e-03 5.98032282e-05 0 0 0 0
6.19979725e+06 0 0 7.75205748e-03 6.15173606e-05 0 0 0 0
6.37750126e+06 0 0 7.75205771e-03 6.32806250e-05 0 0 0 0
6.56029878e+06 0 0 7.75205794e-03 6.50944297e-05 0 0 0 0
6.74833581e+06 0 0 7.75205819e-03 6.69602232e-05 0 0 0 0
6.94176252e+06 0 0 7.75205845e-03 6.88794957e-05 0 0 0 0
7.14073339e+06 0 0 7.75205873e-03 7.08537800e-05 0 0 0 0
7.34540734e+06 0 0 7.75205902e-03 7.28846531e-05 0 0 0 0
7.55594783e+06 0 0 7.75205934e-03 7.49737368e-05 0 0 0 0
7.77252302e+06 0 0 7.75205967e-03 7.71226996e-05 0 0 0 0
7.99530588e+06 0 0 7.75206001e-03 7.93332579e-05 0 0 0 0
8.22447434e+06 0 0 7.75206038e-03 8.16071772e-05 0 0 0 0
8.46021142e+06 0 0 7.75206077e-03 8.39462735e-05 0 0 0 0
8.70270540e+06 0 0 7.75206119e-03 8.63524150e-05 0 0 0 0
8.95214996e+06 0 0 7.75206162e-03 8.88275234e-05 0 0 0 0
9.20874432e+06 0 0 7.75206209e-03 9.13735756e-05 0 0 0 0
9.47269341e+06 0 0 7.75206257e-03 9.39926050e-05 0 0 0 0
9.74420804e+06 0 0 7.75206309e-03 9.66867032e-05 0 0 0 0
1.00235051e+07 0 0 7.75206364e-03 9.94580221e-05 0 0 0 0
1.03108075e+07 0 0 7.75206422e-03 1.02308775e-04 0 0 0 0
1.06063449e+07 0 0 7.75206483e-03 1.05241239e-04 0 0 0 0
1.09103533e+07 0 0 7.75206548e-03 1.08257755e-04 0 0 0 0
1.12230754e+07 0 0 7.75206617e-03 1.11360733e-04 0 0 0 0
1.15447610e+07 0 0 7.75206690e-03 1.14552652e-04 0 0 0 0
1.18756670e+07 0 0 7.75206766e-03 1.17836060e-04 0 0 0 0
1.22160578e+07 0 0 7.75206848e-03 1.21213581e-04 0 0 0 0
1.25662051e+07 0 0 7.75206934e-03 1.24687910e-04 0 0 0 0
1.29263887e+07 0 0 7.75207025e-03 1.28261824e-04 0 0 0 0
1.32968962e+07 0 0 7.75207121e-03 1.31938177e-04 0 0 0 0
1.36780234e+07 0 0 7.75207223e-03 1.35719904e-04 0 0 0 0
1.40700749e+07 0 0 7.75207331e-03 1.39610027e-04 0 0 0 0
1.44733637e+07 0 0 7.75207446e-03 1.43611651e-04 0 0 0 0
1.48882119e+07 0 0 7.75207566e-03 1.47727974e-04 0 0 0 0
1.53149509e+07 0 0 7.75207694e-03 1.51962282e-04 0 0 0 0
1.57539214e+07 0 0 7.75207830e-03 1.56317958e-04 0 0 0 0
1.62054741e+07 0 0 7.75207973e-03 1.60798480e-04 0 0 0 0
1.66699696e+07 0 0 7.75208124e-03 1.65407426e-04 0 0 0 0
1.71477788e+07 0 0 7.75208285e-03 1.70148478e-04 0 0 0 0
1.76392835e+07 0 0 7.75208454e-03 1.75025423e-04 0 0 0 0
1.81448761e+07 0 0 7.75208634e-03 1.80042154e-04 0 0 0 0
1.86649604e+07 0 0 7.75208824e-03 1.85202680e-04 0 0 0 0
1.91999518e+07 0 0 7.75209025e-03 1.90511121e-04 0 0 0 0
1.97502776e+07 0 0 7.75209238e-03 1.95971717e-04 0 0 0 0
2.03163774e+07 0 0 7.75209463e-03 2.01588829e-04 0 0 0 0
2.08987032e+07 0 0 7.75209701e-03 2.07366944e-04 0 0 0 0
2.14977201e+07 0 0 7.75209953e-03 2.13310676e-04 0 0 0 0
2.21139066e+07 0 0 7.75210219e-03 2.19424773e-04 0 0 0 0
2.27477547e+07 0 0 7.75210502e-03 2.25714117e-04 0 0 0 0
2.33997708e+07 0 0 7.75210800e-03 2.32183732e-04 0 0 0 0
2.40704755e+07 0 0 7.75211116e-03 2.38838785e-04 0 0 0 0
2.47604045e+07 0 0 7.75211450e-03 2.45684590e-04 0 0 0 0
2.54701089e+07 0 0 7.75211804e-03 2.52726616e-04 0 0 0 0
2.62001555e+07 0 0 7.75212178e-03 2.59970487e-04 0 0 0 0
2.69511272e+07 0 0 7.75212574e-03 2.67421987e-04 0 0 0 0
2.77236240e+07 0 0 7.75212993e-03 2.75087069e-04 0 0 0 0
2.85182628e+07 0 0 7.75213437e-03 2.82971854e-04 0 0 0 0
2.93356782e+07 0 0 7.75213906e-03 2.91082640e-04 0 0 0 0
3.01765231e+07 0 0 7.75214403e-03 2.99425904e-04 0 0 0 0
3.10414690e+07 0 0 7.75214928e-03 3.08008309e-04 0 0 0 0
3.19312068e+07 0 0 7.75215484e-03 3.16836711e-04 0 0 0 0
3.28464470e+07 0 0 7.75216072e-03 3.25918160e-04 0 0 0 0
3.37879206e+07 0 0 7.75216695e-03 3.35259910e-04 0 0 0 0
3.47563795e+07 0 0 7.75217353e-03 3.44869421e-04 0 0 0 0
3.57525973e+07 0 0 7.75218050e-03 3.54754367e-04 0 0 0 0
3.67773696e+07 0 0 7.75218788e-03 3.64922645e-04 0 0 0 0
3.78315147e+07 0 0 7.75219568e-03 3.75382374e-04 0 0 0 0
3.89158747e+07 0 0 7.75220394e-03 3.86141909e-04 0 0 0 0
4.00313156e+07 0 0 7.75221268e-03 3.97209843e-04 0 0 0 0
4.11787282e+07 0 0 7.75222193e-03 4.08595015e-04 0 0 0 0
4.23590289e+07 0 0 7.75223171e-03 4.20306519e-04 0 0 0 0
4.35731605e+07 0 0 7.75224206e-03 4.32353708e-04 0 0 0 0
4.48220925e+07 0 0 7.75225302e-03 4.44746203e-04 0 0 0 0
4.61068226e+07 0 0 7.75226461e-03 4.57493903e-04 0 0 0 0
4.74283767e+07 0 0 7.75227687e-03 4.70606988e-04 0 0 0 0
4.87878103e+07 0 0 7.75228985e-03 4.84095931e-04 0 0 0 0
5.01862092e+07 0 0 7.75230358e-03 4.97971505e-04 0 0 0 0
5.16246903e+07 0 0 7.75231812e-03 5.12244793e-04 0 0 0 0
5.31044024e+07 0 0 7.75233349e-03 5.26927193e-04 0 0 0 0
5.46265272e+07 0 0 7.75234976e-03 5.42030433e-04 0 0 0 0
5.61922806e+07 0 0 7.75236698e-03 5.57566574e-04 0 0 0 0
5.78029129e+07 0 0 7.75238520e-03 5.73548024e-04 0 0 0 0
5.94597106e+07 0 0 7.75240448e-03 5.89987548e-04 0 0 0 0
6.11639968e+07 0 0 7.75242487e-03 6.06898275e-04 0 0 0 0
6.29171328e+07 0 0 7.75244646e-03 6.24293711e-04 0 0 0 0
6.47205188e+07 0 0 7.75246930e-03 6.42187749e-04 0 0 0 0
6.65755949e+07 0 0 7.75249347e-03 6.60594681e-04 0 0 0 0
6.84838429e+07 0 0 7.75251904e-03 6.79529206e-04 0 0 0 0
7.04467867e+07 0 0 7.75254610e-03 6.99006448e-04 0 0 0 0
7.24659942e+07 0 0 7.75257473e-03 7.19041962e-04 0 0 0 0
7.45430780e+07 0 0 7.75260503e-03 7.39651749e-04 0 0 0 0
7.66796969e+07 0 0 7.75263709e-03 7.60852270e-04 0 0 0 0
7.88775575e+07 0 0 7.75267101e-03 7.82660457e-04 0 0 0 0
8.11384151e+07 0 0 7.75270691e-03 8.05093727e-04 0 0 0 0
8.34640753e+07 0 0 7.75274490e-03 8.28169997e-04 0 0 0 0
8.58563957e+07 0 0 7.75278509e-03 8.51907695e-04 0 0 0 0
8.83172869e+07 0 0 7.75282762e-03 8.76325782e-04 0 0 0 0
9.08487143e+07 0 0 7.75287262e-03 9.01443758e-04 0 0 0 0
9.34526996e+07 0 0 7.75292024e-03 9.27281683e-04 0 0 0 0
9.61313227e+07 0 0 7.75297063e-03 9.53860194e-04 0 0 0 0
9.88867228e+07 0 0 7.75302395e-03 9.81200517e-04 0 0 0 0
1.01721101e+08 0 0 7.75308037e-03 1.00932449e-03 0 0 0 0
1.04636720e+08 0 0 7.75314007e-03 1.03825457e-03 0 0 0 0
1.07635909e+08 0 0 7.75320324e-03 1.06801386e-03 0 0 0 0
1.10721064e+08 0 0 7.75327008e-03 1.09862613e-03 0 0 0 0
1.13894648e+08 0 0 7.75334081e-03 1.13011584e-03 0 0 0 0
1.17159196e+08 0 0 7.75341566e-03 1.16250812e-03 0 0 0 0
1.20517315e+08 0 0 7.75349485e-03 1.19582885e-03 0 0 0 0
1.23971688e+08 0 0 7.75357865e-03 1.23010464e-03 0 0 0 0
1.27525073e+08 0 0 7.75366733e-03 1.26536286e-03 0 0 0 0
1.31180308e+08 0 0 7.75376116e-03 1.30163168e-03 0 0 0 0
1.34940313e+08 0 0 7.75386044e-03 1.33894005e-03 0 0 0 0
1.38808090e+08 0 0 7.75396550e-03 1.37731777e-03 0 0 0 0
1.42786729e+08 0 0 7.75407667e-03 1.41679550e-03 0 0 0 0
1.46879408e+08 0 0 7.75419430e-03 1.45740476e-03 0 0 0 0
1.51089394e+08 0 0 7.75431877e-03 1.49917798e-03 0 0 0 0
1.55420050e+08 0 0 7.75445048e-03 1.54214853e-03 0 0 0 0
1.59874836e+08 0 0 7.75458985e-03 1.58635072e-03 0 0 0 0
1.64457308e+08 0 0 7.75473732e-03 1.63181985e-03 0 0 0 0
1.69171128e+08 0 0 7.75489336e-03 1.67859223e-03 0 0 0 0
1.74020058e+08 0 0 7.75505848e-03 1.72670523e-03 0 0 0 0
1.79007974e+08 0 0 7.75523321e-03 1.77619725e-03 0 0 0 0
1.84138857e+08 0 0 7.75541809e-03 1.82710783e-03 0 0 0 0
1.89416806e+08 0 0 7.75561372e-03 1.87947762e-03 0 0 0 0
1.94846036e+08 0 0 7.75582072e-03 1.93334845e-03 0 0 0 0
2.00430884e+08 0 0 7.75603977e-03 1.98876334e-03 0 0 0 0
2.06175809e+08 0 0 7.75627155e-03 2.04576654e-03 0 0 0 0
2.12085401e+08 0 0 7.75651680e-03 2.10440357e-03 0 0 0 0
2.18164378e+08 0 0 7.75677632e-03 2.16472126e-03 0 0 0 0
2.24417597e+08 0 0 7.75705093e-03 2.22676778e-03 0 0 0 0
2.30850050e+08 0 0 7.75734151e-03 2.29059267e-03 0 0 0 0
2.37466876e+08 0 0 7.75764898e-03 2.35624692e-03 0 0 0 0
2.44273360e+08 0 0 7.75797433e-03 2.42378293e-03 0 0 0 0
2.51274937e+08 0 0 7.75831859e-03 2.49325466e-03 0 0 0 0
2.58477199e+08 0 0 7.75868288e-03 2.56471756e-03 0 0 0 0
2.65885899e+08 0 0 7.75906835e-03 2.63822872e-03 0 0 0 0
2.73506953e+08 0 0 7.75947623e-03 2.71384682e-03 0 0 0 0
2.81346449e+08 0 0 7.75990783e-03 2.79163226e-03 0 0 0 0
2.89410647e+08 0 0 7.76036452e-03 2.87164715e-03 0 0 0 0
2.97705988e+08 0 0 7.76084777e-03 2.95395537e-03 0 0 0 0
3.06239098e+08 0 0 7.76135912e-03 3.03862266e-03 0 0 0 0
3.15016791e+08 0 0 7.76190020e-03 3.12571662e-03 0 0 0 0
3.24046078e+08 0 0 7.76247275e-03 3.21530679e-03 0 0 0 0
3.33334170e+08 0 0 7.76307858e-03 3.30746470e-03 0 0 0 0
3.42888486e+08 0 0 7.76371964e-03 3.40226396e-03 0 0 0 0
3.52716655e+08 0 0 7.76439798e-03 3.49978023e-03 0 0 0 0
3.62826529e+08 0 0 7.76511576e-03 3.60009139e-03 0 0 0 0
3.73226180e+08 0 0 7.76587527e-03 3.70327753e-03 0 0 0 0
3.83923916e+08 0 0 7.76667895e-03 3.80942102e-03 0 0 0 0
3.94928279e+08 0 0 7.76752936e-03 3.91860662e-03 0 0 0 0
4.06248059e+08 0 0 7.76842921e-03 4.03092150e-03 0 0 0 0
4.17892297e+08 0 0 7.76938139e-03 4.14645532e-03 0 0 0 0
4.29870291e+08 0 0 7.77038893e-03 4.26530032e-03 0 0 0 0
4.42191610e+08 0 0 7.77145505e-03 4.38755138e-03 0 0 0 0
4.54866093e+08 0 0 7.77258317e-03 4.51330608e-03 0 0 0 0
4.67903863e+08 0 0 7.77377688e-03 4.64266483e-03 0 0 0 0
4.81315333e+08 0 0 7.77504000e-03 4.77573087e-03 0 0 0 0
4.95111214e+08 0 0 7.77637656e-03 4.91261043e-03 0 0 0 0
5.09302525e+08 0 0 7.77779083e-03 5.05341277e-03 0 0 0 0
5.23900600e+08 0 0 7.77928734e-03 5.19825027e-03 0 0 0 0
5.38917098e+08 0 0 7.78087085e-03 5.34723853e-03 0 0 0 0
5.54364011e+08 0 0 7.78254644e-03 5.50049648e-03 0 0 0 0
5.70253678e+08 0 0 7.78431946e-03 5.65814641e-03 0 0 0 0
5.86598788e+08 0 0 7.78619556e-03 5.82031415e-03 0 0 0 0
6.03412396e+08 0 0 7.78818075e-03 5.98712911e-03 0 0 0 0
6.20707930e+08 0 0 7.79028136e-03 6.15872440e-03 0 0 0 0
6.38499204e+08 0 0 7.79250411e-03 6.33523696e-03 0 0 0 0
6.56800427e+08 0 0 7.79485609e-03 6.51680762e-03 0 0 0 0
6.75626216e+08 0 0 7.79734482e-03 6.70358125e-03 0 0 0 0
6.94991606e+08 0 0 7.79997825e-03 6.89570686e-03 0 0 0 0
7.14912063e+08 0 0 7.80276480e-03 7.09333773e-03 0 0 0 0
7.35403498e+08 0 0 7.80571335e-03 7.29663150e-03 0 0 0 0
7.56482277e+08 0 0 7.80883334e-03 7.50575033e-03 0 0 0 0
7.78165234e+08 0 0 7.81213473e-03 7.72086103e-03 0 0 0 0
8.00469687e+08 0 0 7.81562806e-03 7.94213514e-03 0 0 0 0
8.23413450e+08 0 0 7.81932448e-03 8.16974913e-03 0 0 0 0
8.47014847e+08 0 0 7.82323582e-03 8.40388450e-03 0 0 0 0
8.71292728e+08 0 0 7.82737456e-03 8.64472794e-03 0 0 0 0
8.96266483e+08 0 0 7.83175391e-03 8.89247144e-03 0 0 0 0
9.21956057e+08 0 0 7.83638787e-03 9.14731252e-03 0 0 0 0
9.48381969e+08 0 0 7.84129124e-03 9.40945429e-03 0 0 0 0
9.75565323e+08 0 0 7.84647967e-03 9.67910569e-03 0 0 0 0
1.00352783e+09 0 0 7.85196973e-03 9.95648160e-03 0 0 0 0
1.03229182e+09 0 0 7.85777897e-03 1.02418030e-02 0 0 0 0
1.06188027e+09 0 0 7.86392591e-03 1.05352973e-02 0 0 0 0
1.09231682e+09 0 0 7.87043021e-03 1.08371981e-02 0 0 0 0
1.12362576e+09 0 0 7.87731262e-03 1.11477461e-02 0 0 0 0
1.15583210e+09 0 0 7.88459511e-03 1.14671883e-02 0 0 0 0
1.18896157e+09 0 0 7.89230095e-03 1.17957793e-02 0 0 0 0
1.22304063e+09 0 0 7.90045474e-03 1.21337805e-02 0 0 0 0
1.25809649e+09 0 0 7.90908249e-03 1.24814610e-02 0 0 0 0
1.29415715e+09 0 0 7.91821177e-03 1.28390974e-02 0 0 0 0
1.33125142e+09 0 0 7.92787170e-03 1.32069743e-02 0 0 0 0
1.36940891e+09 0 0 7.93809313e-03 1.35853842e-02 0 0 0 0
1.40866011e+09 0 0 7.94890868e-03 1.39746280e-02 0 0 0 0
1.44903636e+09 0 0 7.96035287e-03 1.43750152e-02 0 0 0 0
1.49056991e+09 0 0 7.97246222e-03 1.47868639e-02 0 0 0 0
1.53329393e+09 0 0 7.98527537e-03 1.52105015e-02 0 0 0 0
1.57724254e+09 0 0 7.99883321e-03 1.56462644e-02 0 0 0 0
1.62245085e+09 0 0 8.01317900e-03 1.60944986e-02 0 0 0 0
1.66895495e+09 0 0 8.02835851e-03 1.65555598e-02 0 0 0 0
1.71679200e+09 0 0 8.04442016e-03 1.70298140e-02 0 0 0 0
1.76600019e+09 0 0 8.06141518e-03 1.75176373e-02 0 0 0 0
1.81661884e+09 0 0 8.07939779e-03 1.80194165e-02 0 0 0 0
1.86868836e+09 0 0 8.09842532e-03 1.85355492e-02 0 0 0 0
1.92225034e+09 0 0 8.11855846e-03 1.90664444e-02 0 0 0 0
1.97734756e+09 0 0 8.13986140e-03 1.96125222e-02 0 0 0 0
2.03402403e+09 0 0 8.16240205e-03 2.01742150e-02 0 0 0 0
2.09232500e+09 0 0 8.18625227e-03 2.07519670e-02 0 0 0 0
2.15229705e+09 0 0 8.21148806e-03 2.13462349e-02 0 0 0 0
2.21398807e+09 0 0 8.23818984e-03 2.19574882e-02 0 0 0 0
2.27744734e+09 0 0 8.26644270e-03 2.25862095e-02 0 0 0 0
2.34272553e+09 0 0 8.29633663e-03 2.32328949e-02 0 0 0 0
2.40987478e+09 0 0 8.32796685e-03 2.38980542e-02 0 0 0 0
2.47894872e+09 0 0 8.36143409e-03 2.45822115e-02 0 0 0 0
2.55000252e+09 0 0 8.39684489e-03 2.52859054e-02 0 0 0 0
2.62309292e+09 0 0 8.43431199e-03 2.60096894e-02 0 0 0 0
2.69827830e+09 0 0 8.47395461e-03 2.67541322e-02 0 0 0 0
2.77561872e+09 0 0 8.51589890e-03 2.75198183e-02 0 0 0 0
2.85517593e+09 0 0 8.56027827e-03 2.83073483e-02 0 0 0 0
2.93701348e+09 0 0 8.60723385e-03 2.91173392e-02 0 0 0 0
3.02119673e+09 0 0 8.65691493e-03 2.99504249e-02 0 0 0 0
3.10779292e+09 0 0 8.70947941e-03 3.08072566e-02 0 0 0 0
3.19687120e+09 0 0 8.76509430e-03 3.16885032e-02 0 0 0 0
3.28850272e+09 0 0 8.82393626e-03 3.25948518e-02 0 0 0 0
3.38276066e+09 0 0 8.88619211e-03 3.35270080e-02 0 0 0 0
3.47972031e+09 0 0 8.95205946e-03 3.44856965e-02 0 0 0 0
3.57945910e+09 0 0 9.02174728e-03 3.54716612e-02 0 0 0 0
3.68205669e+09 0 0 9.09547659e-03 3.64856663e-02 0 0 0 0
3.78759502e+09 0 0 9.17348111e-03 3.75284959e-02 0 0 0 0
3.89615838e+09 0 0 9.25600802e-03 3.86009551e-02 0 0 0 0
4.00783349e+09 0 0 9.34331868e-03 3.97038702e-02 0 0 0 0
4.12270952e+09 0 0 9.43568946e-03 4.08380891e-02 0 0 0 0
4.24087823e+09 0 0 9.53341260e-03 4.20044818e-02 0 0 0 0
4.36243399e+09 0 0 9.63679708e-03 4.32039410e-02 0 0 0 0
4.48747389e+09 0 0 9.74616959e-03 4.44373821e-02 0 0 0 0
4.61609780e+09 0 0 9.86187552e-03 4.57057441e-02 0 0 0 0
4.74840843e+09 0 0 9.98428000e-03 4.70099899e-02 0 0 0 0
4.88451147e+09 0 0 1.01137690e-02 4.83511065e-02 0 0 0 0
5.02451561e+09 0 0 1.02507506e-02 4.97301056e-02 0 0 0 0
5.16853268e+09 0 0 1.03956560e-02 5.11480239e-02 0 0 0 0
5.31667768e+09 0 0 1.05489411e-02 5.26059236e-02 0 0 0 0
5.46906895e+09 0 0 1.07110876e-02 5.41048928e-02 0 0 0 0
5.62582819e+09 0 0 1.08826046e-02 5.56460453e-02 0 0 0 0
5.78708061e+09 0 0 1.10640301e-02 5.72305217e-02 0 0 0 0
5.95295498e+09 0 0 1.12559326e-02 5.88594892e-02 0 0 0 0
6.12358378e+09 0 0 1.14589126e-02 6.05341417e-02 0 0 0 0
6.29910330e+09 0 0 1.16736046e-02 6.22557006e-02 0 0 0 0
6.47965371e+09 0 0 1.19006788e-02 6.40254143e-02 0 0 0 0
6.66537922e+09 0 0 1.21408432e-02 6.58445589e-02 0 0 0 0
6.85642815e+09 0 0 1.23948454e-02 6.77144378e-02 0 0 0 0
7.05295309e+09 0 0 1.26634750e-02 6.96363820e-02 0 0 0 0
7.25511101e+09 0 0 1.29475656e-02 7.16117498e-02 0 0 0 0
7.46306335e+09 0 0 1.32479973e-02 7.36419271e-02 0 0 0 0
7.67697620e+09 0 0 1.35656993e-02 7.57283265e-02 0 0 0 0
7.89702042e+09 0 0 1.39016520e-02 7.78723879e-02 0 0 0 0
8.12337173e+09 0 0 1.42568905e-02 8.00755771e-02 0 0 0 0
8.35621092e+09 0 0 1.46325064e-02 8.23393861e-02 0 0 0 0
8.59572395e+09 0 0 1.50296519e-02 8.46653321e-02 0 0 0 0
8.84210211e+09 0 0 1.54495418e-02 8.70549569e-02 0 0 0 0
9.09554218e+09 0 0 1.58934576e-02 8.95098257e-02 0 0 0 0
9.35624657e+09 0 0 1.63627502e-02 9.20315265e-02 0 0 0 0
9.62442350e+09 0 0 1.68588438e-02 9.46216685e-02 0 0 0 0
9.90028715e+09 0 0 1.73832392e-02 9.72818809e-02 0 0 0 0
1.01840578e+10 0 0 1.79375181e-02 1.00013811e-01 0 0 0 0
1.04759622e+10 0 0 1.85233462e-02 1.02819124e-01 0 0 0 0
1.07762334e+10 0 0 1.91424781e-02 1.05699496e-01 0 0 0 0
1.10851113e+10 0 0 1.97967608e-02 1.08656620e-01 0 0 0 0
1.14028424e+10 0 0 2.04881386e-02 1.11692194e-01 0 0 0 0
1.17296807e+10 0 0 2.12186568e-02 1.14807926e-01 0 0 0 0
1.20658870e+10 0 0 2.19904671e-02 1.18005526e-01 0 0 0 0
1.24117301e+10 0 0 2.28058318e-02 1.21286702e-01 0 0 0 0
1.27674859e+10 0 0 2.36671286e-02 1.24653162e-01 0 0 0 0
1.31334388e+10 0 0 2.45768558e-02 1.28106602e-01 0 0 0 0
1.35098809e+10 0 0 2.55376369e-02 1.31648705e-01 0 0 0 0
1.38971129e+10 0 0 2.65522260e-02 1.35281137e-01 0 0 0 0
1.42954441e+10 0 0 2.76235127e-02 1.39005538e-01 0 0 0 0
1.47051927e+10 0 0 2.87545272e-02 1.42823518e-01 0 0 0 0
1.51266858e+10 0 0 2.99484457e-02 1.46736651e-01 0 0 0 0
1.55602601e+10 0 0 3.12085953e-02 1.50746462e-01 0 0 0 0
1.60062619e+10 0 0 3.25384589e-02 1.54854428e-01 0 0 0 0
1.64650474e+10 0 0 3.39416807e-02 1.59061960e-01 0 0 0 0
1.69369830e+10 0 0 3.54220704e-02 1.63370400e-01 0 0 0 0
1.74224456e+10 0 0 3.69836083e-02 1.67781007e-01 0 0 0 0
1.79218230e+10 0 0 3.86304495e-02 1.72294949e-01 0 0 0 0
1.84355140e+10 0 0 4.03669278e-02 1.76913289e-01 0 0 0 0
1.89639288e+10 0 0 4.21975599e-02 1.81636973e-01 0 0 0 0
1.95074895e+10 0 0 4.41270483e-02 1.86466816e-01 0 0 0 0
2.00666303e+10 0 0 4.61602841e-02 1.91403489e-01 0 0 0 0
2.06417976e+10 0 0 4.83023495e-02 1.96447503e-01 0 0 0 0
2.12334509e+10 0 0 5.05585187e-02 2.01599190e-01 0 0 0 0
2.18420626e+10 0 0 5.29342587e-02 2.06858692e-01 0 0 0 0
2.24681189e+10 0 0 5.54352294e-02 2.12225936e-01 0 0 0 0
2.31121198e+10 0 0 5.80672814e-02 2.17700618e-01 0 0 0 0
2.37745796e+10 0 0 6.08364545e-02 2.23282185e-01 0 0 0 0
2.44560274e+10 0 0 6.37489727e-02 2.28969808e-01 0 0 0 0
2.51570075e+10 0 0 6.68112398e-02 2.34762366e-01 0 0 0 0
2.58780797e+10 0 0 7.00298316e-02 2.40658421e-01 0 0 0 0
2.66198198e+10 0 0 7.34114877e-02 2.46656193e-01 0 0 0 0
2.73828204e+10 0 0 7.69631006e-02 2.52753536e-01 0 0 0 0
2.81676908e+10 0 0 8.06917026e-02 2.58947918e-01 0 0 0 0
2.89750578e+10 0 0 8.46044507e-02 2.65236389e-01 0 0 0 0
2.98055662e+10 0 0 8.87086091e-02 2.71615559e-01 0 0 0 0
3.06598795e+10 0 0 9.30115285e-02 2.78081572e-01 0 0 0 0
3.15386798e+10 0 0 9.75206233e-02 2.84630081e-01 0 0 0 0
3.24426690e+10 0 0 1.02243345e-01 2.91256220e-01 0 0 0 0
3.33725692e+10 0 0 1.07187154e-01 2.97954585e-01 0 0 0 0
3.43291230e+10 0 0 1.12359484e-01 3.04719204e-01 0 0 0 0
3.53130943e+10 0 0 1.17767711e-01 3.11543521e-01 0 0 0 0
3.63252692e+10 0 0 1.23419109e-01 3.18420368e-01 0 0 0 0
3.73664558e+10 0 0 1.29320811e-01 3.25341954e-01 0 0 0 0
3.84374859e+10 0 0 1.35479760e-01 3.32299845e-01 0 0 0 0
3.95392147e+10 0 0 1.41902659e-01 3.39284950e-01 0 0 0 0
4.06725223e+10 0 0 1.48595920e-01 3.46287514e-01 0 0 0 0
4.18383138e+10 0 0 1.55565607e-01 3.53297111e-01 0 0 0 0
4.30375201e+10 0 0 1.62817375e-01 3.60302641e-01 0 0 0 0
4.42710992e+10 0 0 1.70356409e-01 3.67292337e-01 0 0 0 0
4.55400362e+10 0 0 1.78187358e-01 3.74253775e-01 0 0 0 0
4.68453446e+10 0 0 1.86314272e-01 3.81173883e-01 0 0 0 0
4.81880668e+10 0 0 1.94740532e-01 3.88038971e-01 0 0 0 0
4.95692754e+10 0 0 2.03468780e-01 3.94834754e-01 0 0 0 0
5.09900733e+10 0 0 2.12500854e-01 4.01546392e-01 0 0 0 0
5.24515955e+10 0 0 2.21837716e-01 4.08158533e-01 0 0 0 0
5.39550090e+10 0 0 2.31479392e-01 4.14655363e-01 0 0 0 0
5.55015147e+10 0 0 2.41424902e-01 4.21020669e-01 0 0 0 0
5.70923477e+10 0 0 2.51672205e-01 4.27237907e-01 0 0 0 0
5.87287785e+10 0 0 2.62218139e-01 4.33290275e-01 0 0 0 0
6.04121142e+10 0 0 2.73058379e-01 4.39160802e-01 0 0 0 0
6.21436991e+10 0 0 2.84187385e-01 4.44832437e-01 0 0 0 0
6.39249161e+10 0 0 2.95598375e-01 4.50288148e-01 0 0 0 0
6.57571880e+10 0 0 3.07283296e-01 4.55511026e-01 0 0 0 0
6.76419781e+10 0 0 3.19232808e-01 4.60484395e-01 0 0 0 0
6.95807917e+10 0 0 3.31436281e-01 4.65191929e-01 0 0 0 0
7.15751773e+10 0 0 3.43881801e-01 4.69617764e-01 0 0 0 0
7.36267276e+10 0 0 3.56556189e-01 4.73746622e-01 0 0 0 0
7.57370813e+10 0 0 3.69445034e-01 4.77563928e-01 0 0 0 0
7.79079239e+10 0 0 3.82532737e-01 4.81055925e-01 0 0 0 0
8.01409890e+10 0 0 3.95802572e-01 4.84209794e-01 0 0 0 0
8.24380601e+10 0 0 4.09236752e-01 4.87013762e-01 0 0 0 0
8.48009720e+10 0 0 4.22816519e-01 4.89457202e-01 0 0 0 0
8.72316116e+10 0 0 4.36522236e-01 4.91530735e-01 0 0 0 0
8.97319204e+10 0 0 4.50333495e-01 4.93226311e-01 0 0 0 0
9.23038953e+10 0 0 4.64229233e-01 4.94537287e-01 0 0 0 0
9.49495903e+10 0 0 4.78187860e-01 4.95458489e-01 0 0 0 0
9.76711186e+10 0 0 4.92187384e-01 4.95986262e-01 0 0 0 0
1.00470654e+11 0 0 5.06205558e-01 4.96118504e-01 0 0 0 0
1.03350431e+11 0 0 5.20220012e-01 4.95854687e-01 0 0 0 0
1.06312752e+11 0 0 5.34208404e-01 4.95195864e-01 0 0 0 0
1.09359981e+11 0 0 5.48148555e-01 4.94144655e-01 0 0 0 0
1.12494553e+11 0 0 5.62018593e-01 4.92705225e-01 0 0 0 0
1.15718970e+11 0 0 5.75797086e-01 4.90883243e-01 0 0 0 0
1.19035808e+11 0 0 5.89463177e-01 4.88685826e-01 0 0 0 0
1.22447717e+11 0 0 6.02996701e-01 4.86121475e-01 0 0 0 0
1.25957421e+11 0 0 6.16378303e-01 4.83199994e-01 0 0 0 0
1.29567722e+11 0 0 6.29589536e-01 4.79932402e-01 0 0 0 0
1.33281506e+11 0 0 6.42612958e-01 4.76330831e-01 0 0 0 0
1.37101737e+11 0 0 6.55432210e-01 4.72408425e-01 0 0 0 0
1.41031467e+11 0 0 6.68032082e-01 4.68179224e-01 0 0 0 0
1.45073834e+11 0 0 6.80398568e-01 4.63658052e-01 0 0 0 0
1.49232068e+11 0 0 6.92518906e-01 4.58860394e-01 0 0 0 0
1.53509488e+11 0 0 7.04381608e-01 4.53802279e-01 0 0 0 0
1.57909511e+11 0 0 7.15976471e-01 4.48500165e-01 0 0 0 0
1.62435652e+11 0 0 7.27294586e-01 4.42970816e-01 0 0 0 0
1.67091524e+11 0 0 7.38328323e-01 4.37231195e-01 0 0 0 0
1.71880848e+11 0 0 7.49071316e-01 4.31298350e-01 0 0 0 0
1.76807447e+11 0 0 7.59518434e-01 4.25189319e-01 0 0 0 0
1.81875257e+11 0 0 7.69665742e-01 4.18921024e-01 0 0 0 0
1.87088325e+11 0 0 7.79510458e-01 4.12510190e-01 0 0 0 0
1.92450814e+11 0 0 7.89050900e-01 4.05973261e-01 0 0 0 0
1.97967008e+11 0 0 7.98286428e-01 3.99326323e-01 0 0 0 0
2.03641312e+11 0 0 8.07217386e-01 3.92585044e-01 0 0 0 0
2.09478257e+11 0 0 8.15845035e-01 3.85764610e-01 0 0 0 0
2.15482506e+11 0 0 8.24171489e-01 3.78879682e-01 0 0 0 0
2.21658854e+11 0 0 8.32199642e-01 3.71944351e-01 0 0 0 0
2.28012234e+11 0 0 8.39933105e-01 3.64972105e-01 0 0 0 0
2.34547721e+11 0 0 8.47376133e-01 3.57975800e-01 0 0 0 0
2.41270533e+11 0 0 8.54533564e-01 3.50967646e-01 0 0 0 0
2.48186040e+11 0 0 8.61410743e-01 3.43959189e-01 0 0 0 0
2.55299765e+11 0 0 8.68013469e-01 3.36961303e-01 0 0 0 0
2.62617391e+11 0 0 8.74347928e-01 3.29984192e-01 0 0 0 0
2.70144760e+11 0 0 8.80420635e-01 3.23037389e-01 0 0 0 0
2.77887886e+11 0 0 8.86238378e-01 3.16129766e-01 0 0 0 0
2.85852952e+11 0 0 8.91808169e-01 3.09269542e-01 0 0 0 0
2.94046319e+11 0 0 8.97137192e-01 3.02464299e-01 0 0 0 0
3.02474532e+11 0 0 9.02232761e-01 2.95720999e-01 0 0 0 0
3.11144322e+11 0 0 9.07102274e-01 2.89046001e-01 0 0 0 0
3.20062613e+11 0 0 9.11753177e-01 2.82445087e-01 0 0 0 0
3.29236527e+11 0 0 9.16192933e-01 2.75923478e-01 0 0 0 0
3.38673393e+11 0 0 9.20428982e-01 2.69485867e-01 0 0 0 0
3.48380746e+11 0 0 9.24468721e-01 2.63136433e-01 0 0 0 0
3.58366340e+11 0 0 9.28319475e-01 2.56878875e-01 0 0 0 0
3.68638150e+11 0 0 9.31988473e-01 2.50716433e-01 0 0 0 0
3.79204379e+11 0 0 9.35482835e-01 2.44651917e-01 0 0 0 0
3.90073467e+11 0 0 9.38809546e-01 2.38687727e-01 0 0 0 0
4.01254094e+11 0 0 9.41975449e-01 2.32825885e-01 0 0 0 0
4.12755190e+11 0 0 9.44987232e-01 2.27068054e-01 0 0 0 0
4.24585941e+11 0 0 9.47851414e-01 2.21415565e-01 0 0 0 0
4.36755794e+11 0 0 9.50574339e-01 2.15869439e-01 0 0 0 0
4.49274471e+11 0 0 9.53162170e-01 2.10430411e-01 0 0 0 0
4.62151969e+11 0 0 9.55620886e-01 2.05098949e-01 0 0 0 0
4.75398574e+11 0 0 9.57956273e-01 1.99875278e-01 0 0 0 0
4.89024864e+11 0 0 9.60173928e-01 1.94759397e-01 0 0 0 0
5.03041722e+11 0 0 9.62279252e-01 1.89751099e-01 0 0 0 0
5.17460344e+11 0 0 9.64277457e-01 1.84849992e-01 0 0 0 0
5.32292246e+11 0 0 9.66173562e-01 1.80055508e-01 0 0 0 0
5.47549272e+11 0 0 9.67972393e-01 1.75366928e-01 0 0 0 0
5.63243608e+11 0 0 9.69678592e-01 1.70783392e-01 0 0 0 0
5.79387790e+11 0 0 9.71296614e-01 1.66303912e-01 0 0 0 0
5.95994710e+11 0 0 9.72830734e-01 1.61927390e-01 0 0 0 0
6.13077632e+11 0 0 9.74285047e-01 1.57652627e-01 0 0 0 0
6.30650199e+11 0 0 9.75663476e-01 1.53478335e-01 0 0 0 0
6.48726447e+11 0 0 9.76969777e-01 1.49403146e-01 0 0 0 0
6.67320813e+11 0 0 9.78207539e-01 1.45425628e-01 0 0 0 0
6.86448146e+11 0 0 9.79380192e-01 1.41544288e-01 0 0 0 0
7.06123723e+11 0 0 9.80491014e-01 1.37757581e-01 0 0 0 0
7.26363260e+11 0 0 9.81543130e-01 1.34063922e-01 0 0 0 0
7.47182919e+11 0 0 9.82539524e-01 1.30461691e-01 0 0 0 0
7.68599330e+11 0 0 9.83483041e-01 1.26949237e-01 0 0 0 0
7.90629597e+11 0 0 9.84376389e-01 1.23524890e-01 0 0 0 0
8.13291314e+11 0 0 9.85222151e-01 1.20186959e-01 0 0 0 0
8.36602582e+11 0 0 9.86022785e-01 1.16933745e-01 0 0 0 0
8.60582017e+11 0 0 9.86780628e-01 1.13763541e-01 0 0 0 0
8.85248772e+11 0 0 9.87497906e-01 1.10674636e-01 0 0 0 0
9.10622547e+11 0 0 9.88176735e-01 1.07665320e-01 0 0 0 0
9.36723608e+11 0 0 9.88819126e-01 1.04733890e-01 0 0 0 0
9.63572799e+11 0 0 9.89426990e-01 1.01878648e-01 0 0 0 0
9.91191566e+11 0 0 9.90002144e-01 9.90979064e-02 0 0 0 0
1.01960197e+12 0 0 9.90546312e-01 9.63899924e-02 0 0 0 0
1.04882669e+12 0 0 9.91061131e-01 9.37532469e-02 0 0 0 0
1.07888908e+12 0 0 9.91548155e-01 9.11860284e-02 0 0 0 0
1.10981314e+12 0 0 9.92008861e-01 8.86867140e-02 0 0 0 0
1.14162358e+12 0 0 9.92444646e-01 8.62537014e-02 0 0 0 0
1.17434579e+12 0 0 9.92856839e-01 8.38854102e-02 0 0 0 0
1.20800592e+12 0 0 9.93246698e-01 8.15802828e-02 0 0 0 0
1.24263084e+12 0 0 9.93615418e-01 7.93367854e-02 0 0 0 0
1.27824821e+12 0 0 9.93964129e-01 7.71534092e-02 0 0 0 0
1.31488648e+12 0 0 9.94293905e-01 7.50286708e-02 0 0 0 0
1.35257491e+12 0 0 9.94605762e-01 7.29611129e-02 0 0 0 0
1.39134360e+12 0 0 9.94900663e-01 7.09493048e-02 0 0 0 0
1.43122351e+12 0 0 9.95179520e-01 6.89918425e-02 0 0 0 0
1.47224649e+12 0 0 9.95443199e-01 6.70873495e-02 0 0 0 0
1.51444530e+12 0 0 9.95692517e-01 6.52344764e-02 0 0 0 0
1.55785366e+12 0 0 9.95928250e-01 6.34319013e-02 0 0 0 0
1.60250623e+12 0 0 9.96151133e-01 6.16783301e-02 0 0 0 0
1.64843866e+12 0 0 9.96361861e-01 5.99724958e-02 0 0 0 0
1.69568765e+12 0 0 9.96561091e-01 5.83131590e-02 0 0 0 0
1.74429094e+12 0 0 9.96749447e-01 5.66991075e-02 0 0 0 0
1.79428733e+12 0 0 9.96927518e-01 5.51291562e-02 0 0 0 0
1.84571676e+12 0 0 9.97095863e-01 5.36021468e-02 0 0 0 0
1.89862031e+12 0 0 9.97255009e-01 5.21169477e-02 0 0 0 0
1.95304023e+12 0 0 9.97405458e-01 5.06724536e-02 0 0 0 0
2.00901998e+12 0 0 9.97547681e-01 4.92675851e-02 0 0 0 0
2.06660427e+12 0 0 9.97682126e-01 4.79012885e-02 0 0 0 0
2.12583909e+12 0 0 9.97809216e-01 4.65725354e-02 0 0 0 0
2.18677175e+12 0 0 9.97929353e-01 4.52803225e-02 0 0 0 0
2.24945091e+12 0 0 9.98042915e-01 4.40236706e-02 0 0 0 0
2.31392665e+12 0 0 9.98150260e-01 4.28016250e-02 0 0 0 0
2.38025044e+12 0 0 9.98251728e-01 4.16132546e-02 0 0 0 0
2.44847526e+12 0 0 9.98347639e-01 4.04576514e-02 0 0 0 0
2.51865560e+12 0 0 9.98438297e-01 3.93339305e-02 0 0 0 0
2.59084751e+12 0 0 9.98523988e-01 3.82412292e-02 0 0 0 0
2.66510865e+12 0 0 9.98604983e-01 3.71787068e-02 0 0 0 0
2.74149833e+12 0 0 9.98681541e-01 3.61455441e-02 0 0 0 0
2.82007755e+12 0 0 9.98753902e-01 3.51409431e-02 0 0 0 0
2.90090908e+12 0 0 9.98822296e-01 3.41641263e-02 0 0 0 0
2.98405748e+12 0 0 9.98886940e-01 3.32143363e-02 0 0 0 0
3.06958914e+12 0 0 9.98948040e-01 3.22908357e-02 0 0 0 0
3.15757239e+12 0 0 9.99005790e-01 3.13929061e-02 0 0 0 0
3.24807750e+12 0 0 9.99060372e-01 3.05198481e-02 0 0 0 0
3.34117674e+12 0 0 9.99111960e-01 2.96709807e-02 0 0 0 0
3.43694447e+12 0 0 9.99160718e-01 2.88456410e-02 0 0 0 0
3.53545718e+12 0 0 9.99206802e-01 2.80431836e-02 0 0 0 0
3.63679355e+12 0 0 9.99250357e-01 2.72629801e-02 0 0 0 0
3.74103451e+12 0 0 9.99291522e-01 2.65044192e-02 0 0 0 0
3.84826331e+12 0 0 9.99330428e-01 2.57669056e-02 0 0 0 0
3.95856561e+12 0 0 9.99367199e-01 2.50498601e-02 0 0 0 0
4.07202948e+12 0 0 9.99401951e-01 2.43527190e-02 0 0 0 0
4.18874555e+12 0 0 9.99434797e-01 2.36749340e-02 0 0 0 0
4.30880704e+12 0 0 9.99465839e-01 2.30159711e-02 0 0 0 0
4.43230984e+12 0 0 9.99495177e-01 2.23753113e-02 0 0 0 0
4.55935258e+12 0 0 9.99522905e-01 2.17524491e-02 0 0 0 0
4.69003674e+12 0 0 9.99549110e-01 2.11468931e-02 0 0 0 0
4.82446668e+12 0 0 9.99573877e-01 2.05581651e-02 0 0 0 0
4.96274976e+12 0 0 9.99597284e-01 1.99857998e-02 0 0 0 0
5.10499644e+12 0 0 9.99619405e-01 1.94293446e-02 0 0 0 0
5.25132032e+12 0 0 9.99640312e-01 1.88883595e-02 0 0 0 0
5.40183826e+12 0 0 9.99660071e-01 1.83624161e-02 0 0 0 0
5.55667047e+12 0 0 9.99678745e-01 1.78510980e-02 0 0 0 0
5.71594062e+12 0 0 9.99696393e-01 1.73540001e-02 0 0 0 0
5.87977592e+12 0 0 9.99713072e-01 1.68707283e-02 0 0 0 0
6.04830720e+12 0 0 9.99728835e-01 1.64008994e-02 0 0 0 0
6.22166908e+12 0 0 9.99743732e-01 1.59441408e-02 0 0 0 0
6.40000000e+12 0 0 9.99757811e-01 1.55000900e-02 0 0 0 0
